*SPEF "IEEE 1481-1998"
*DESIGN "eight_bit_divider"
*DATE "Fri Sep 26 14:34:33 2025"
*VENDOR "Cadence Design Systems, Inc."
*PROGRAM "Innovus"
*VERSION "21.15-s110_1"
*DESIGN_FLOW "PIN_CAP NONE" "NAME_SCOPE LOCAL"
*DIVIDER /
*DELIMITER :
*BUS_DELIMITER []
*T_UNIT 1 NS
*C_UNIT 1 PF
*R_UNIT 1 OHM
*L_UNIT 1 HENRY

// MMMC spef file for corner 'rccorners'

*NAME_MAP

*1 clk
*2 rst
*3 start
*4 x[7]
*5 x[6]
*6 x[5]
*7 x[4]
*8 x[3]
*9 x[2]
*10 x[1]
*11 x[0]
*12 y[7]
*13 y[6]
*14 y[5]
*15 y[4]
*16 y[3]
*17 y[2]
*18 y[1]
*19 y[0]
*20 q[7]
*21 q[6]
*22 q[5]
*23 q[4]
*24 q[3]
*25 q[2]
*26 q[1]
*27 q[0]
*28 p[7]
*29 p[6]
*30 p[5]
*31 p[4]
*32 p[3]
*33 p[2]
*34 p[1]
*35 p[0]
*36 done
*37 FE_OCPN113_FE_OFN2_n_78
*38 FE_OCPN112_FE_OFN2_n_78
*39 FE_OCPN111_FE_OFN2_n_78
*40 FE_OCPN110_FE_OFN2_n_78
*41 FE_RN_122_0
*42 FE_RN_121_0
*43 FE_RN_4
*44 FE_OCPN55_n_104
*45 FE_RN_120_0
*46 FE_RN_3
*47 FE_RN_119_0
*48 FE_RN_2
*49 FE_RN_118_0
*50 FE_OCPN53_n_9
*51 FE_RN_117_0
*52 FE_OCPN52_FE_RN_95_0
*53 FE_RN_116_0
*54 FE_RN_115_0
*55 FE_RN_114_0
*56 FE_RN_113_0
*57 FE_RN_112_0
*58 FE_RN_111_0
*59 FE_OCPN51_n_57
*60 FE_RN_110_0
*61 FE_RN_109_0
*62 FE_RN_108_0
*63 FE_RN_107_0
*64 FE_RN_106_0
*65 FE_RN_105_0
*66 FE_RN_104_0
*67 FE_RN_103_0
*68 FE_RN_1
*69 FE_RN_102_0
*70 FE_RN_101_0
*71 FE_RN_100_0
*72 FE_RN_99_0
*73 FE_RN_98_0
*74 FE_RN_97_0
*75 FE_OCPN50_c_1
*76 FE_OCPN49_c_1
*77 FE_RN_96_0
*78 FE_OCPN65_c_2
*79 FE_OCPN48_n_13
*80 FE_OCPN47_n_13
*81 FE_OCPN64_c_0
*82 FE_RN_95_0
*83 FE_RN_94_0
*84 FE_OCPN46_FE_RN_38_0
*85 FE_OCPN63_FE_RN_60_0
*86 FE_OCPN45_FE_RN_35_0
*87 FE_RN_93_0
*88 FE_RN_92_0
*89 FE_RN_91_0
*90 FE_OCPN61_n_109
*91 FE_RN_90_0
*92 FE_RN_89_0
*93 FE_RN_88_0
*94 FE_RN_87_0
*95 FE_OCPN44_n_2
*96 FE_OCPN43_c_1
*97 FE_RN_86_0
*98 FE_RN_85_0
*99 FE_RN_84_0
*100 FE_RN_82_0
*101 FE_RN_81_0
*102 FE_RN_79_0
*103 FE_RN_78_0
*104 FE_OCPN41_n_46
*105 FE_OCPN40_FE_RN_6_0
*106 FE_OCPN39_n_46
*107 FE_RN_77_0
*108 FE_RN_68_0
*109 FE_RN_67_0
*110 FE_RN_66_0
*111 FE_RN_65_0
*112 FE_RN_64_0
*113 FE_RN_63_0
*114 FE_RN_60_0
*115 FE_RN_59_0
*116 FE_RN_58_0
*117 FE_RN_57_0
*118 FE_RN_56_0
*119 FE_RN_55_0
*120 FE_RN_54_0
*121 FE_RN_53_0
*122 FE_RN_52_0
*123 FE_RN_51_0
*124 FE_RN_50_0
*125 FE_RN_48_0
*126 FE_RN_47_0
*127 FE_RN_46_0
*128 FE_RN_45_0
*129 FE_RN_44_0
*130 FE_RN_43_0
*131 FE_RN_42_0
*132 FE_RN_41_0
*133 FE_RN_40_0
*134 FE_RN_39_0
*135 FE_RN_38_0
*136 FE_RN_37_0
*137 FE_RN_36_0
*138 FE_RN_35_0
*139 FE_RN_34_0
*140 FE_RN_33_0
*141 FE_RN_32_0
*142 FE_RN_31_0
*143 FE_RN_30_0
*144 FE_RN_29_0
*145 FE_RN_28_0
*146 FE_RN_26_0
*147 FE_RN_25_0
*148 FE_RN_24_0
*149 FE_RN_23_0
*150 FE_RN_22_0
*151 FE_RN_21_0
*152 FE_RN_19_0
*153 FE_RN_18_0
*154 FE_RN_17_0
*155 FE_RN_16_0
*156 FE_RN_15_0
*157 FE_RN_14_0
*158 FE_RN_12_0
*159 FE_RN_11_0
*160 FE_RN_10_0
*161 FE_RN_9_0
*162 FE_RN_8_0
*163 FE_RN_6_0
*164 FE_RN_5_0
*165 FE_RN_4_0
*166 FE_RN_3_0
*167 FE_RN_2_0
*168 FE_RN_1_0
*169 FE_RN_0_0
*170 FE_OFN17_a_7
*171 FE_OFN16_a_7
*172 FE_OFN15_rst
*173 FE_OFN9_n_111
*174 FE_OFN8_n_111
*175 FE_OFN7_n_60
*176 FE_OFN5_n_81
*177 FE_OFN4_n_59
*178 FE_OFN2_n_78
*179 FE_OFN0_n_10
*180 a[7]
*181 a[6]
*182 a[5]
*183 a[4]
*184 a[3]
*185 a[2]
*186 a[1]
*187 a[0]
*188 state[1]
*189 state[0]
*190 c[7]
*191 c[6]
*192 c[5]
*193 c[4]
*194 c[3]
*195 c[2]
*196 c[1]
*197 c[0]
*198 count[3]
*199 count[2]
*200 count[1]
*201 count[0]
*202 b[7]
*203 b[6]
*204 b[5]
*205 b[4]
*206 b[3]
*207 b[2]
*208 b[1]
*209 b[0]
*210 UNCONNECTED
*211 n_0
*212 n_1
*213 n_2
*214 n_3
*215 n_4
*216 n_5
*217 n_6
*218 n_7
*219 n_8
*220 n_9
*221 n_10
*222 n_11
*223 n_12
*224 n_13
*225 n_14
*226 n_15
*227 n_16
*228 n_17
*229 n_18
*230 n_19
*231 n_20
*232 n_21
*233 n_22
*234 n_24
*235 n_25
*236 n_26
*237 n_27
*238 n_29
*239 n_30
*240 n_31
*241 n_32
*242 n_33
*243 n_34
*244 n_35
*245 n_36
*246 n_37
*247 n_38
*248 n_39
*249 n_40
*250 n_41
*251 n_42
*252 n_43
*253 n_44
*254 n_45
*255 n_46
*256 n_47
*257 n_48
*258 n_49
*259 n_50
*260 n_52
*261 n_53
*262 n_54
*263 n_55
*264 n_57
*265 n_58
*266 n_61
*267 n_62
*268 n_63
*269 n_64
*270 n_65
*271 n_68
*272 n_69
*273 n_70
*274 n_71
*275 n_72
*276 n_73
*277 n_74
*278 n_75
*279 n_76
*280 n_77
*281 n_78
*282 n_81
*283 n_82
*284 n_83
*285 n_84
*286 n_85
*287 n_86
*288 n_87
*289 n_88
*290 n_89
*291 n_90
*292 n_91
*293 n_92
*294 n_93
*295 n_94
*296 n_95
*297 n_96
*298 n_97
*299 n_99
*300 n_100
*301 n_101
*302 n_102
*303 n_103
*304 n_104
*305 n_105
*306 n_106
*307 n_107
*308 n_108
*309 n_109
*310 n_112
*311 n_113
*312 n_114
*313 n_115
*314 n_116
*315 n_117
*316 n_118
*317 n_119
*318 n_120
*319 n_121
*320 n_122
*321 n_123
*322 n_124
*323 n_125
*324 n_126
*325 n_127
*326 n_130
*327 n_131
*328 n_132
*329 n_133
*330 n_134
*331 n_135
*332 n_136
*333 n_137
*334 n_139
*335 n_158
*336 n_159
*337 n_941_BAR
*338 rc_gclk
*339 rc_gclk_2077
*340 rc_gclk_2079
*341 rc_gclk_2084
*342 RC_CG_HIER_INST0/LTIELO_NET
*343 RC_CG_HIER_INST1/LTIELO_NET
*344 RC_CG_HIER_INST2/LTIELO_NET
*345 RC_CG_HIER_INST3/LTIELO_NET
*346 FE_OCPC50_FE_OFN2_n_78
*347 FE_OCPC49_FE_OFN2_n_78
*348 FE_OCPC48_FE_OFN2_n_78
*349 FE_OCPC47_FE_OFN2_n_78
*350 FE_OCPC46_FE_OFN2_n_78
*351 FE_RC_203_0
*352 FE_RC_202_0
*353 FE_RC_201_0
*354 g5051__2346_dup
*355 FE_RC_200_0
*356 FE_OCPC55_n_104
*357 FE_RC_199_0
*358 FE_RC_198_0
*359 FE_OCPC45_FE_RN_90_0
*360 FE_OCPC44_109
*361 g5017__9315_dup
*362 FE_RC_197_0
*363 FE_RC_196_0
*364 FE_RC_195_0
*365 g5008__7098_dup
*366 FE_RC_194_0
*367 FE_RC_193_0
*368 FE_OCPC53_n_9
*369 FE_RC_192_0
*370 FE_RC_191_0
*371 FE_RC_190_0
*372 FE_RC_189_0
*373 FE_OCPC52_FE_RN_95_0
*374 FE_RC_188_0
*375 FE_RC_187_0
*376 FE_RC_186_0
*377 FE_RC_185_0
*378 FE_RC_184_0
*379 FE_RC_183_0
*380 FE_RC_182_0
*381 FE_RC_180_0
*382 FE_OCPC51_n_57
*383 FE_RC_179_0
*384 FE_RC_178_0
*385 FE_RC_177_0
*386 FE_RC_176_0
*387 FE_RC_175_0
*388 FE_RC_174_0
*389 FE_RC_172_0
*390 FE_RC_171_0
*391 FE_RC_170_0
*392 FE_RC_169_0
*393 FE_RC_168_0
*394 FE_RC_166_0
*395 FE_RC_165_0
*396 FE_RC_164_0
*397 g5012__5115_dup
*398 FE_RC_163_0
*399 FE_RC_162_0
*400 FE_RC_161_0
*401 FE_RC_160_0
*402 FE_RC_159_0
*403 FE_RC_158_0
*404 FE_RC_157_0
*405 FE_RC_155_0
*406 FE_RC_154_0
*407 FE_RC_153_0
*408 FE_RC_152_0
*409 FE_OCPC50_c_1
*410 FE_OCPC49_c_1
*411 FE_RC_151_0
*412 FE_RC_150_0
*413 FE_OCPC43_c_2
*414 FE_OCPC48_n_13
*415 FE_OCPC47_n_13
*416 FE_RC_149_0
*417 FE_OCPC42_c_0
*418 FE_RC_148_0
*419 FE_RC_146_0
*420 FE_RC_145_0
*421 FE_OCPC46_FE_RN_38_0
*422 FE_OCPC41_FE_RN_60_0
*423 FE_OCPC45_FE_RN_35_0
*424 FE_RC_144_0
*425 FE_RC_143_0
*426 FE_RC_142_0
*427 FE_RC_140_0
*428 FE_RC_138_0
*429 FE_RC_137_0
*430 FE_RC_136_0
*431 FE_OCPC44_n_2
*432 FE_OCPC43_c_1
*433 FE_RC_134_0
*434 FE_RC_133_0
*435 FE_RC_132_0
*436 FE_RC_131_0
*437 FE_RC_126_0
*438 FE_RC_125_0
*439 FE_RC_123_0
*440 FE_RC_122_0
*441 FE_OCPC41_n_46
*442 FE_OCPC40_FE_RN_6_0
*443 FE_OCPC39_n_46
*444 FE_RC_117_0
*445 FE_RC_113_0
*446 FE_RC_112_0
*447 FE_RC_102_0
*448 FE_RC_101_0
*449 FE_RC_100_0
*450 FE_RC_99_0
*451 FE_RC_98_0
*452 FE_RC_96_0
*453 FE_RC_95_0
*454 FE_RC_94_0
*455 FE_RC_93_0
*456 FE_RC_92_0
*457 FE_RC_91_0
*458 FE_RC_90_0
*459 FE_RC_89_0
*460 FE_RC_88_0
*461 FE_RC_87_0
*462 FE_RC_86_0
*463 FE_RC_85_0
*464 FE_RC_84_0
*465 FE_RC_83_0
*466 FE_RC_82_0
*467 FE_RC_77_0
*468 FE_RC_76_0
*469 FE_RC_73_0
*470 FE_RC_72_0
*471 FE_RC_71_0
*472 FE_RC_70_0
*473 FE_RC_66_0
*474 FE_RC_65_0
*475 FE_RC_62_0
*476 FE_RC_60_0
*477 FE_RC_59_0
*478 FE_RC_58_0
*479 FE_RC_57_0
*480 FE_RC_56_0
*481 FE_RC_53_0
*482 FE_RC_52_0
*483 FE_RC_50_0
*484 FE_RC_49_0
*485 FE_RC_48_0
*486 FE_RC_46_0
*487 FE_RC_43_0
*488 FE_RC_39_0
*489 FE_RC_38_0
*490 FE_RC_36_0
*491 FE_RC_35_0
*492 FE_RC_34_0
*493 FE_RC_33_0
*494 FE_RC_32_0
*495 FE_RC_31_0
*496 FE_RC_30_0
*497 FE_RC_27_0
*498 FE_RC_26_0
*499 FE_RC_25_0
*500 FE_RC_24_0
*501 FE_RC_23_0
*502 FE_RC_21_0
*503 FE_RC_17_0
*504 FE_RC_16_0
*505 FE_RC_15_0
*506 FE_RC_14_0
*507 FE_RC_13_0
*508 FE_RC_12_0
*509 FE_RC_9_0
*510 FE_RC_8_0
*511 FE_RC_7_0
*512 FE_RC_6_0
*513 FE_RC_5_0
*514 FE_RC_4_0
*515 FE_RC_3_0
*516 FE_RC_2_0
*517 FE_OFC37_b_5
*518 FE_OFC36_n_131
*519 FE_OFC34_n_136
*520 FE_OFC33_a_7
*521 FE_OFC32_a_7
*522 FE_OFC31_a_7
*523 FE_OFC29_n_81
*524 FE_OFC28_n_81
*525 FE_OFC25_b_6
*526 FE_OFC24_b_7
*527 FE_OFC18_n_78
*528 FE_OFC17_rst
*529 FE_OFC16_rst
*530 FE_OFC15_rst
*531 FE_OFC9_n_111
*532 RC_CG_HIER_INST0/LTIELO
*533 RC_CG_HIER_INST0/RC_CGIC_INST
*534 RC_CG_HIER_INST1/LTIELO
*535 RC_CG_HIER_INST1/RC_CGIC_INST
*536 RC_CG_HIER_INST2/LTIELO
*537 RC_CG_HIER_INST2/RC_CGIC_INST
*538 RC_CG_HIER_INST3/LTIELO
*539 RC_CG_HIER_INST3/RC_CGIC_INST
*540 g3486
*541 q_reg\[7\]
*542 g4976__2398
*543 a_reg\[7\]
*544 q_reg\[6\]
*545 g4979__5107
*546 a_reg\[6\]
*547 q_reg\[5\]
*548 g4982__6260
*549 a_reg\[5\]
*550 q_reg\[4\]
*551 g4985__4319
*552 a_reg\[4\]
*553 q_reg\[3\]
*554 g4988__8428
*555 a_reg\[3\]
*556 g4990__5526
*557 q_reg\[2\]
*558 g4992__6783
*559 p_reg\[7\]
*560 p_reg\[6\]
*561 p_reg\[2\]
*562 p_reg\[4\]
*563 p_reg\[5\]
*564 p_reg\[1\]
*565 g4999__3680
*566 g5000__1617
*567 g5001__2802
*568 p_reg\[0\]
*569 p_reg\[3\]
*570 a_reg\[2\]
*571 g5008__7098
*572 g5009__6131
*573 q_reg\[1\]
*574 g5012__5115
*575 g5016__6161
*576 g5017__9315
*577 g5018__9945
*578 g5020__2346
*579 q_reg\[0\]
*580 g5022__1666
*581 a_reg\[1\]
*582 g5025__6417
*583 g5026__5477
*584 g5027__2398
*585 g5028__5107
*586 g5029__6260
*587 g5031__8428
*588 g5032__5526
*589 g5033__6783
*590 g5034__3680
*591 g5035__1617
*592 g5036__2802
*593 g5037__1705
*594 g5038__5122
*595 g5039__8246
*596 g5040__7098
*597 g5041__6131
*598 g5043__1881
*599 g5044__5115
*600 g5045__7482
*601 g5046__4733
*602 g5047__6161
*603 g5048__9315
*604 g5049__9945
*605 g5050__2883
*606 g5051__2346
*607 b_reg\[5\]
*608 b_reg\[0\]
*609 b_reg\[7\]
*610 b_reg\[6\]
*611 b_reg\[2\]
*612 b_reg\[3\]
*613 b_reg\[4\]
*614 b_reg\[1\]
*615 g5061__1666
*616 g5062__7410
*617 c_reg\[5\]
*618 c_reg\[4\]
*619 c_reg\[0\]
*620 c_reg\[6\]
*621 c_reg\[7\]
*622 c_reg\[1\]
*623 c_reg\[2\]
*624 c_reg\[3\]
*625 g4748__6783
*626 g4749__3680
*627 g4752__1705
*628 g4753__5122
*629 g4754__8246
*630 g4755__7098
*631 a_reg\[0\]
*632 g4757__6131
*633 count_reg\[1\]
*634 g4770__6417
*635 count_reg\[2\]
*636 count_reg\[3\]
*637 g4774__2398
*638 g4775__5107
*639 g4776__6260
*640 g4777__4319
*641 done_reg
*642 g4779__8428
*643 g4781__6783
*644 g4782__3680
*645 count_reg\[0\]
*646 state_reg\[1\]
*647 g4785__1617
*648 g4786__2802
*649 g4787
*650 g4789__5122
*651 g4790__8246
*652 g4791__7098
*653 g4792__6131
*654 g4793__1881
*655 g4795__7482
*656 g4796__4733
*657 g4797__6161
*658 g4798__9315
*659 g4799__9945
*660 g4800__2883
*661 g4801__2346
*662 g4802__1666
*663 g4803__7410
*664 g4804__6417
*665 state_reg\[0\]
*666 g4806
*667 g4813
*668 g2


*PORTS

*1 I *C 0 32.775
*2 I *C 0 31.635
*3 I *C 0 30.495
*4 I *C 0 29.355
*5 I *C 0 28.215
*6 I *C 0 27.075
*7 I *C 0 25.935
*8 I *C 0 24.795
*9 I *C 0 23.655
*10 I *C 0 22.515
*11 I *C 0 21.375
*12 I *C 0 20.235
*13 I *C 0 19.095
*14 I *C 0 17.955
*15 I *C 0 16.815
*16 I *C 0 15.675
*17 I *C 0 14.535
*18 I *C 0 13.395
*19 I *C 0 12.255
*20 O *C 47.8 19.855
*21 O *C 47.8 20.235
*22 O *C 47.8 20.615
*23 O *C 47.8 20.995
*24 O *C 47.8 21.375
*25 O *C 47.8 21.755
*26 O *C 47.8 22.135
*27 O *C 47.8 22.515
*28 O *C 47.8 22.895
*29 O *C 47.8 23.275
*30 O *C 47.8 23.655
*31 O *C 47.8 24.035
*32 O *C 47.8 24.415
*33 O *C 47.8 24.795
*34 O *C 47.8 25.175
*35 O *C 47.8 25.555
*36 O *C 47.8 25.935


*D_NET *1 0.00724942

*CONN
*I *539:CK I *C 18.1 23.085 *L 0.000175 *D TLATNTSCAX2HVT
*I *641:CK I *C 27.1 31.255 *L 0.000234 *D DFFRHQX1LVT
*I *535:CK I *C 26.3 29.925 *L 0.000175 *D TLATNTSCAX2HVT
*I *645:CK I *C 18.3 32.965 *L 0.000234 *D DFFRHQX1LVT
*I *537:CK I *C 10.3 13.775 *L 0.000175 *D TLATNTSCAX2HVT
*P *1 I *C 0 32.775 *L 0
*I *533:CK I *C 29.3 26.505 *L 0.000175 *D TLATNTSCAX2HVT

*CAP
1 *1:0 0.00044462
2 *1:1 0.000606828
3 *1:2 0.000998528
4 *1:3 0.000566373
5 *1:4 4.04552e-05
6 *1:6 0.000553908
7 *1:7 8.19037e-05
8 *1:8 9.36042e-05
9 *1:10 0.00041628
10 *1:11 8.19037e-05
11 *1:13 0.000105305
12 *1:15 0.00041628
13 *1:16 0.000188791
14 *1:19 1.17005e-05
15 *1:20 0.00101647
16 *1:22 0.000188791
17 *1:26 0.00101647
18 *1:28 0.000210609
19 *1:33 0.000210609

*RES
1 *1:39 *533:CK 8
2 *1:37 *1:39 8
3 *1:35 *1 8
4 *1:33 *1:37 8
5 *1:32 *537:CK 8
6 *1:31 *1:35 8
7 *1:30 *645:CK 8
8 *1:28 *1:33 11.1968
9 *1:27 *1:32 8
10 *1:26 *1:31 8
11 *1:25 *1:30 8
12 *1:23 *535:CK 8
13 *1:22 *1:28 8
14 *1:21 *1:27 8
15 *1:20 *1:26 59.302
16 *1:19 *1:25 8
17 *1:18 *641:CK 8
18 *1:17 *1:23 8
19 *1:16 *1:22 9.77765
20 *1:15 *1:21 8
21 *1:13 *1:20 8
22 *1:13 *1:19 0.622045
23 *1:12 *1:18 8
24 *1:11 *1:17 8
25 *1:11 *1:16 8
26 *1:10 *1:15 25.2291
27 *1:9 *539:CK 8
28 *1:8 *1:13 4.97636
29 *1:7 *1:12 8
30 *1:7 *1:11 4.35432
31 *1:6 *1:10 8
32 *1:5 *1:9 8
33 *1:4 *1:8 8
34 *1:3 *1:7 8
35 *1:2 *1:6 31.0683
36 *1:2 *1:5 8
37 *1:1 *1:4 2.09521
38 *1:1 *1:3 29.333
39 *1:0 *1:2 23.6377
40 *1:0 *1:1 8
*END

*D_NET *2 0.00157229

*CONN
*I *529:A I *C 10.005 33.135 *L 0.00537 *D CLKINVX12LVT
*I *530:A I *C 9.095 31.25 *L 0.00359 *D CLKINVX8LVT
*I *528:A I *C 10.7 33.155 *L 0.00267 *D CLKINVX6LVT
*P *2 I *C 0 31.635 *L 0

*CAP
1 *2:1 4.7229e-06
2 *2:2 5.71719e-06
3 *2:3 9.94295e-07
4 *2:4 5.86539e-05
5 *2:5 5.86539e-05
6 *2:6 9.42094e-05
7 *2:7 1.88916e-05
8 *2:8 7.55664e-05
9 *2:9 4.69231e-05
10 *2:10 2.48574e-07
11 *2:11 0.000527885
12 *2:13 8.50122e-05
13 *2:14 0.000480962
14 *2:15 8.50122e-05
15 *2:16 9.4458e-06
16 *2:18 1.44173e-05
17 *2 4.97147e-06

*RES
1 *2:18 *2 0.326083
2 *2:16 *2:18 0.619558
3 *2:15 *528:A 8
4 *2:14 *2:16 8
5 *2:13 *2:15 5.57603
6 *2:11 *2:14 28.1023
7 *2:11 *2:13 8
8 *2:10 *530:A 8
9 *2:9 *2:11 2.74169
10 *2:8 *2:10 0.0163042
11 *2:7 *2:9 8
12 *2:6 *2:8 4.94016
13 *2:6 *2:7 1.23912
14 *2:5 *2:6 8
15 *2:4 *2:5 3.42711
16 *2:3 *2:4 8
17 *2:2 *2:3 0.0652167
18 *2:1 *2:2 0.309779
19 *529:A *2:1 8
*END

*D_NET *3 0.00267323

*CONN
*I *604:B I *C 14.9 29.735 *L 0.000876 *D NAND2X2LVT
*I *580:B I *C 17.5 29.735 *L 0.000233 *D OR2X1LVT
*I *643:A1 I *C 12.825 32.71 *L 0.000435 *D OAI221X1LVT
*I *603:AN I *C 15.54 31.52 *L 0.000234 *D NAND2BXLLVT
*I *398:A1 I *C 18.9 29.36 *L 0.000882 *D OAI21X2LVT
*P *3 I *C 0 30.495 *L 0

*CAP
1 *3:0 8.50122e-05
2 *3:1 0.000107135
3 *3:3 2.21231e-05
4 *3:4 0.000136056
5 *3:5 0.000121707
6 *3:6 0.000136056
7 *3:7 0.000267462
8 *3:8 9.69912e-05
9 *3:9 0.000145755
10 *3:12 9.69912e-05
11 *3:13 5.09576e-05
12 *3:15 2.46102e-05
13 *3:16 4.97147e-07
14 *3:17 5.04605e-05
15 *3:18 2.46102e-05
16 *3:20 0.000653404
17 *3:22 0.000653404

*RES
1 *3:22 *3 8
2 *3:21 *398:A1 8
3 *3:20 *3:22 38.178
4 *3:18 *3:21 8
5 *3:17 *3:20 8
6 *3:16 *603:AN 8
7 *3:15 *3:18 1.27459
8 *3:13 *3:17 3.30975
9 *3:13 *3:16 0.0326083
10 *3:12 *3:15 8
11 *3:10 *643:A1 8
12 *3:9 *3:13 8
13 *3:8 *3:12 5.15643
14 *3:8 *580:B 8
15 *3:7 *3:10 8
16 *3:7 *3:9 8.51637
17 *3:6 *3:8 8
18 *3:5 *3:7 7.11125
19 *3:4 *3:6 7.59157
20 *3:3 *3:5 8
21 *3:1 *3:4 8
22 *3:1 *3:3 1.45107
23 *3:0 *604:B 8
24 *3:0 *3:1 5.57603
*END

*D_NET *4 0.00389437

*CONN
*I *357:A I *C 23.7 27.835 *L 0.000436 *D NAND2X1LVT
*P *4 I *C 0 29.355 *L 0
*I *543:D I *C 29.72 27.85 *L 0.000435 *D SDFFRHQX2LVT

*CAP
1 *4:0 6.15817e-07
2 *4:1 9.32963e-05
3 *4:3 9.26805e-05
4 *4:4 0.000317573
5 *4:5 0.00153631
6 *4:6 0.000317573
7 *4:7 0.00153631

*RES
1 *4:8 *543:D 9.2
2 *4:7 *4 9.2
3 *4:6 *4:8 9.2
4 *4:5 *4:7 99.1593
5 *4:4 *4:6 18.9145
6 *4:3 *4:5 9.2
7 *4:1 *4:4 9.2
8 *4:1 *4:3 5.66634
9 *4:0 *357:A 9.2
10 *4:0 *4:1 0.0376501
*END

*D_NET *5 0.00419034

*CONN
*I *399:A I *C 28.1 24.415 *L 0.000436 *D NAND2X1LVT
*P *5 I *C 0 28.215 *L 0
*I *546:D I *C 33.1 29.735 *L 0.000435 *D SDFFRHQX1LVT

*CAP
1 *5:0 0.00020753
2 *5:1 0.000242632
3 *5:3 3.51016e-05
4 *5:4 3.77582e-05
5 *5:5 0.00181478
6 *5:6 3.77582e-05
7 *5:7 0.00181478

*RES
1 *5:8 *546:D 8
2 *5:7 *5 8
3 *5:6 *5:8 8
4 *5:5 *5:7 100.647
5 *5:4 *5:6 1.95553
6 *5:3 *5:5 8
7 *5:1 *5:4 8
8 *5:1 *5:3 1.86614
9 *5:0 *399:A 8
10 *5:0 *5:1 11.0331
*END

*D_NET *6 0.00509471

*CONN
*I *565:A0N I *C 31.245 24.68 *L 0.000233 *D OAI2BB1X1LVT
*I *549:D I *C 34.1 31.065 *L 0.000435 *D SDFFRHQX1LVT
*P *6 I *C 0 27.075 *L 0

*CAP
1 *6:1 3.38699e-06
2 *6:2 8.00562e-06
3 *6:3 4.61863e-06
4 *6:4 1.34851e-05
5 *6:5 1.34851e-05
6 *6:6 0.000245711
7 *6:7 0.000245711
8 *6:8 0.000361382
9 *6:9 0.000347896
10 *6:10 1.34851e-05
11 *6:11 1.08804e-05
12 *6:12 4.68021e-05
13 *6:13 1.08804e-05
14 *6:14 4.68021e-05
15 *6:16 0.00184667
16 *6:17 0.00184667
17 *6:18 9.4458e-06
18 *6:19 1.44173e-05
19 *6 4.97147e-06

*RES
1 *6:19 *6 0.326083
2 *6:18 *6:19 0.619558
3 *6:17 *6:18 8
4 *6:16 *6:17 102.26
5 *6:14 *6:16 8
6 *6:13 *549:D 8
7 *6:12 *6:14 2.48818
8 *6:11 *6:13 0.622742
9 *6:10 *6:12 8
10 *6:9 *6:11 8
11 *6:8 *6:10 0.698404
12 *6:8 *6:9 18.0794
13 *6:7 *6:8 8
14 *6:6 *6:7 13.063
15 *6:5 *6:6 8
16 *6:4 *6:5 0.698404
17 *6:3 *6:4 8
18 *6:2 *6:3 0.245544
19 *6:1 *6:2 0.180066
20 *565:A0N *6:1 8
*END

*D_NET *7 0.00462418

*CONN
*I *552:D I *C 33.5 33.155 *L 0.000435 *D SDFFRHQX1LVT
*P *7 I *C 0 25.935 *L 0
*I *566:A0N I *C 32.245 24.68 *L 0.000233 *D OAI2BB1X1LVT

*CAP
1 *7:1 1.17005e-05
2 *7:2 1.17005e-05
3 *7:3 1.34851e-05
4 *7:4 1.34851e-05
5 *7:5 0.000327615
6 *7:6 0.000327615
7 *7:7 9.43954e-05
8 *7:8 0.00187364
9 *7:9 7.7285e-05
10 *7:10 0.00177925
11 *7:11 8.0672e-05
12 *7:12 4.97147e-06
13 *7:13 3.38699e-06
14 *7 4.97147e-06

*RES
1 *7:13 *566:A0N 8
2 *7:12 *7 0.326083
3 *7:11 *7:13 0.180066
4 *7:10 *7:12 8
5 *7:9 *7:11 4.10877
6 *7:8 *7:10 98.7683
7 *7:8 *7:9 8
8 *7:7 *7:8 4.88883
9 *7:6 *7:7 8
10 *7:5 *7:6 17.4173
11 *7:4 *7:5 8
12 *7:3 *7:4 0.698404
13 *7:2 *7:3 8
14 *7:1 *7:2 0.622045
15 *552:D *7:1 8
*END

*D_NET *8 0.00113193

*CONN
*I *601:B I *C 9.23 26.105 *L 0.00178 *D NAND2X4LVT
*P *8 I *C 0 24.795 *L 0

*CAP
1 *8:1 3.48003e-06
2 *8:2 2.13773e-05
3 *8:3 1.78973e-05
4 *8:4 0.000539615
5 *8:5 0.000539615
6 *8:6 4.97147e-06
7 *8 4.97147e-06

*RES
1 *8:6 *8 0.326083
2 *8:5 *8:6 8
3 *8:4 *8:5 31.5294
4 *8:3 *8:4 8
5 *8:2 *8:3 1.1739
6 *8:1 *8:2 0.228258
7 *601:B *8:1 8
*END

*D_NET *9 0.00431379

*CONN
*I *570:D I *C 32.1 34.485 *L 0.000435 *D SDFFRHQX1LVT
*I *567:A0N I *C 30.245 24.68 *L 0.000233 *D OAI2BB1X1LVT
*P *9 I *C 0 23.655 *L 0

*CAP
1 *9:1 0.00018259
2 *9:2 0.000190595
3 *9:3 3.38699e-06
4 *9:4 4.61863e-06
5 *9:6 0.0019141
6 *9:7 0.0019141
7 *9:8 4.7229e-05
8 *9:9 5.22005e-05
9 *9 4.97147e-06

*RES
1 *9:9 *9 0.326083
2 *9:8 *9:9 3.09779
3 *9:7 *9:8 8
4 *9:6 *9:7 105.752
5 *9:4 *9:6 8
6 *9:3 *567:A0N 8
7 *9:2 *9:4 0.245544
8 *9:2 *9:3 0.180066
9 *9:1 *9:2 9.70718
10 *570:D *9:1 8
*END

*D_NET *10 0.00477638

*CONN
*I *581:SI I *C 31.5 36.385 *L 0.000435 *D SDFFRHQX1LVT
*I *405:A I *C 27.5 24.415 *L 0.000436 *D NAND2X1LVT
*P *10 I *C 0 22.515 *L 0

*CAP
1 *10:0 0.000421527
2 *10:1 0.000421527
3 *10:3 8.69786e-05
4 *10:5 8.69786e-05
5 *10:7 0.000222002
6 *10:9 0.000222002
7 *10:11 0.00165768
8 *10:13 0.00165768

*RES
1 *10:15 *10 9.28
2 *10:14 *10:15 9.28
3 *10:13 *10:14 9.28
4 *10:11 *10:13 107.313
5 *10:10 *405:A 9.28
6 *10:9 *10:11 9.28
7 *10:8 *10:10 9.28
8 *10:7 *10:9 13.6909
9 *10:7 *10:8 9.28
10 *10:5 *10:7 9.28
11 *10:4 *581:SI 9.28
12 *10:3 *10:5 5.22546
13 *10:2 *10:4 9.28
14 *10:1 *10:3 9.28
15 *10:0 *10:2 9.28
16 *10:0 *10:1 25.9956
*END

*D_NET *11 0.00414337

*CONN
*I *632:A1N I *C 23.1 31.065 *L 0.000233 *D OAI2BB1X1LVT
*I *577:B I *C 17.86 25.955 *L 0.000881 *D NAND4X2LVT
*P *11 I *C 0 21.375 *L 0

*CAP
1 *11:0 0.000314683
2 *11:1 0.000314683
3 *11:3 0.000420734
4 *11:4 0.000420734
5 *11:5 0.000282044
6 *11:7 0.000282044
7 *11:8 0.00105422
8 *11:9 0.00105422

*RES
1 *11:9 *11 8
2 *11:8 *11:9 61.2575
3 *11:7 *11:8 8
4 *11:5 *11:7 14.9946
5 *11:5 *577:B 8
6 *11:4 *11:5 8
7 *11:3 *11:4 21.7902
8 *11:1 *11:3 8
9 *11:0 *632:A1N 8
10 *11:0 *11:1 16.7297
*END

*D_NET *12 0.00251884

*CONN
*I *609:D I *C 19.165 19.435 *L 0.000343 *D DFFRHQX1LVT
*I *602:B I *C 19.115 21.045 *L 0.00268 *D NOR2X6LVT
*I *599:B I *C 8.375 22.475 *L 0.000434 *D NOR2X1LVT
*I *666:A I *C 9.7 27.645 *L 0.000436 *D INVX1LVT
*P *12 I *C 0 20.235 *L 0

*CAP
1 *12:1 3.23146e-06
2 *12:2 1.06887e-05
3 *12:3 7.45721e-06
4 *12:4 0.000222885
5 *12:5 0.0004575
6 *12:6 1.26773e-05
7 *12:7 0.000234615
8 *12:8 1.59087e-05
9 *12:9 1.14344e-05
10 *12:10 3.23146e-06
11 *12:11 0.000145416
12 *12:13 0.000130253
13 *12:14 3.72861e-06
14 *12:15 0.000492692
15 *12:17 1.17308e-05
16 *12:18 0.000480962
17 *12:19 0.000122795
18 *12:20 9.4458e-06
19 *12:21 0.000122795
20 *12:22 1.44173e-05
21 *12 4.97147e-06

*RES
1 *12:22 *12 0.326083
2 *12:21 *666:A 8
3 *12:20 *12:22 0.619558
4 *12:19 *12:21 8.05426
5 *12:18 *12:20 8
6 *12:17 *12:19 8
7 *12:15 *12:18 28.1023
8 *12:15 *12:17 0.685422
9 *12:14 *599:B 8
10 *12:13 *12:15 8
11 *12:11 *12:14 0.244562
12 *12:11 *12:13 8.54338
13 *12:10 *602:B 8
14 *12:9 *12:11 0.749992
15 *12:8 *12:10 0.211954
16 *12:7 *12:9 8
17 *12:6 *12:8 0.831512
18 *12:5 *12:7 13.7084
19 *12:5 *12:6 8
20 *12:4 *12:5 13.023
21 *12:3 *12:4 8
22 *12:2 *12:3 0.489125
23 *12:1 *12:2 0.211954
24 *609:D *12:1 8
*END

*D_NET *13 0.00302615

*CONN
*I *401:A I *C 13.1 22.895 *L 0.000436 *D INVX1LVT
*I *366:B I *C 15.165 24.265 *L 0.00356 *D NOR3X8LVT
*P *13 I *C 0 19.095 *L 0
*I *610:D I *C 13.165 20.845 *L 0.000343 *D DFFRHQX1LVT
*I *605:B I *C 14.685 21.11 *L 0.00178 *D NOR2X4LVT
*I *659:B I *C 8.375 24.645 *L 0.000434 *D NOR2X1LVT

*CAP
1 *13:0 0.00027362
2 *13:1 0.000748716
3 *13:2 0.000170024
4 *13:4 0.000475096
5 *13:5 6.81092e-05
6 *13:6 0.000101915
7 *13:8 1.88916e-05
8 *13:9 6.33462e-05
9 *13:11 0.000140769
10 *13 1.88916e-05
11 *13:13 6.33462e-05
12 *13:14 0.000140769
13 *13:15 0.000183199
14 *13:17 0.000183199
15 *13:19 0.000182413
16 *13:21 0.000182413
17 *13:22 5.71719e-06
18 *13:23 5.71719e-06

*RES
1 *13:23 *659:B 8
2 *13:22 *13:23 0.374996
3 *13:21 *13:22 8
4 *13:19 *13:21 10.6583
5 *13:17 *605:B 8
6 *13:17 *13:19 8
7 *13:16 *610:D 8
8 *13:15 *13:17 12.0162
9 *13:14 *13:16 8
10 *13:13 *13:15 8
11 *13:11 *13:14 8.22507
12 *13:9 *13:13 3.70128
13 *13:8 *13 1.23912
14 *13:6 *13:11 8
15 *13:5 *366:B 8
16 *13:5 *13:9 8
17 *13:4 *13:8 8
18 *13:3 *401:A 8
19 *13:2 *13:6 6.68471
20 *13:2 *13:5 4.46734
21 *13:1 *13:4 27.7596
22 *13:1 *13:3 8
23 *13:0 *13:2 8
24 *13:0 *13:1 15.9875
*END

*D_NET *14 0.0025507

*CONN
*I *600:B I *C 15.3 19.235 *L 0.00358 *D NOR2X8LVT
*I *607:D I *C 12.165 17.425 *L 0.000343 *D DFFRHQX1LVT
*I *402:AN I *C 12.9 22.705 *L 0.000234 *D NAND2BX1LVT
*P *14 I *C 0 17.955 *L 0
*I *659:A I *C 8.1 24.225 *L 0.000435 *D NOR2X1LVT

*CAP
1 *14:0 6.74519e-05
2 *14:1 0.000223764
3 *14:3 0.000153619
4 *14:4 0.000156313
5 *14:6 0.000179967
6 *14:7 8.25265e-05
7 *14:8 0.000678332
8 *14:9 2.63488e-05
9 *14:10 0.000158093
10 *14:11 0.000678332
11 *14:13 7.55664e-05
12 *14:16 3.51923e-05
13 *14:17 3.51923e-05

*RES
1 *14:18 *659:A 8
2 *14:17 *14:18 8
3 *14:16 *14:17 2.05627
4 *14:13 *14:16 8
5 *14:11 *14 8
6 *14:10 *402:AN 8
7 *14:10 *14:13 4.95647
8 *14:9 *607:D 8
9 *14:8 *14:11 39.6345
10 *14:7 *14:10 5.41298
11 *14:6 *14:9 1.72824
12 *14:6 *14:8 8
13 *14:4 *14:7 8
14 *14:3 *14:6 10.076
15 *14:2 *600:B 8
16 *14:1 *14:4 9.13325
17 *14:1 *14:3 8
18 *14:0 *14:2 8
19 *14:0 *14:1 3.94118
*END

*D_NET *15 0.00258622

*CONN
*I *613:D I *C 16.965 16.015 *L 0.000343 *D DFFRHQX1LVT
*I *602:A I *C 19.33 21.035 *L 0.00268 *D NOR2X6LVT
*I *598:B I *C 10.175 24.645 *L 0.000434 *D NOR2X1LVT
*I *661:B I *C 12.375 19.055 *L 0.000434 *D NOR2X1LVT
*P *15 I *C 0 16.815 *L 0

*CAP
1 *15:1 3.21734e-06
2 *15:2 5.19724e-06
3 *15:3 1.9799e-06
4 *15:4 0.000175128
5 *15:5 0.000175128
6 *15:6 0.000207127
7 *15:7 0.000207127
8 *15:8 2.34615e-05
9 *15:9 0.000211154
10 *15:10 2.95803e-05
11 *15:11 0.000187692
12 *15:12 3.3806e-05
13 *15:13 1.6903e-05
14 *15:14 4.22575e-06
15 *15:15 6.03828e-05
16 *15:17 3.72861e-06
17 *15:18 3.97512e-05
18 *15:20 4.3782e-05
19 *15:21 0.000514438
20 *15:22 6.78116e-05
21 *15:23 0.000470656
22 *15:24 7.15239e-05
23 *15:25 9.40453e-06
24 *15:26 3.71231e-06
25 *15:27 1.43543e-05
26 *15 4.94975e-06

*RES
1 *15:27 *15 0.324609
2 *15:26 *661:B 8
3 *15:25 *15:27 0.616758
4 *15:24 *15:26 0.243457
5 *15:23 *15:25 8
6 *15:22 *15:24 4.44715
7 *15:21 *15:23 28.5399
8 *15:21 *15:22 8
9 *15:20 *15:21 2.65487
10 *15:18 *15:20 8
11 *15:17 *598:B 8
12 *15:15 *15:18 2.60727
13 *15:15 *15:17 0.244562
14 *15:14 *602:A 8
15 *15:13 *15:15 1.10868
16 *15:12 *15:14 0.277171
17 *15:11 *15:13 8
18 *15:10 *15:12 1.9402
19 *15:9 *15:11 10.9668
20 *15:9 *15:10 8
21 *15:8 *15:9 1.37084
22 *15:7 *15:8 8
23 *15:6 *15:7 13.5841
24 *15:5 *15:6 8
25 *15:4 *15:5 10.6195
26 *15:3 *15:4 8
27 *15:2 *15:3 0.129844
28 *15:1 *15:2 0.210996
29 *613:D *15:1 8
*END

*D_NET *16 0.00326086

*CONN
*P *16 I *C 0 15.675 *L 0
*I *661:A I *C 12.1 19.475 *L 0.000435 *D NOR2X1LVT
*I *612:D I *C 13.925 8.995 *L 0.000343 *D DFFRHQX4LVT
*I *354:B I *C 11.515 19.235 *L 0.00268 *D NOR2X6LVT
*I *582:B I *C 8.9 24.415 *L 0.000233 *D OR3X1LVT
*I *606:B I *C 9.285 21.11 *L 0.00178 *D NOR2X4LVT

*CAP
1 *16:0 0.000530856
2 *16:1 0.000530856
3 *16:3 0.000497388
4 *16:4 0.000266634
5 *16:5 0.000327674
6 *16:6 0.000264482
7 *16:8 0.000231224
8 *16:9 0.000167564
9 *16:10 8.29659e-05
10 *16:11 0.000231224
11 *16:12 2.34615e-05
12 *16:13 8.29659e-05
13 *16:15 2.34615e-05
14 *16:16 2.48574e-08
15 *16:19 2.48574e-08
16 *16:22 2.93269e-08
17 *16:23 2.93269e-08

*RES
1 *16:24 *606:B 9.12
2 *16:23 *16:24 9.12
3 *16:22 *16:23 0.00195345
4 *16:19 *16:22 9.12
5 *16:18 *582:B 9.12
6 *16:16 *354:B 9.12
7 *16:16 *16:19 0.00185867
8 *16:15 *16:18 9.12
9 *16:14 *612:D 9.12
10 *16:13 *16:16 9.12
11 *16:12 *16:15 1.56276
12 *16:11 *16:14 9.12
13 *16:10 *16:13 5.52632
14 *16:9 *16:12 9.12
15 *16:8 *16:11 15.984
16 *16:6 *16:10 9.12
17 *16:6 *16:9 12.5293
18 *16:5 *16:8 9.12
19 *16:4 *661:A 9.12
20 *16:4 *16:6 7.24697
21 *16:3 *16:5 24.4976
22 *16:3 *16:4 12.6894
23 *16:1 *16:3 9.12
24 *16:0 *16 9.12
25 *16:0 *16:1 36.6969
*END

*D_NET *17 0.00294844

*CONN
*P *17 I *C 0 14.535 *L 0
*I *660:B I *C 9.165 19.03 *L 0.000878 *D NOR2X2LVT
*I *611:D I *C 13.325 10.765 *L 0.000343 *D DFFRHQX4LVT
*I *598:A I *C 9.9 24.225 *L 0.000435 *D NOR2X1LVT
*I *606:A I *C 9.595 20.99 *L 0.00179 *D NOR2X4LVT
*I *354:A I *C 11.73 19.245 *L 0.00268 *D NOR2X6LVT

*CAP
1 *17:0 0.000468741
2 *17:1 0.000729243
3 *17:3 0.000260503
4 *17:4 0.000248265
5 *17:5 0.000186606
6 *17:6 0.000322589
7 *17:7 0.000186606
8 *17:8 7.43235e-05
9 *17:11 9.00337e-05
10 *17:12 0.000162149
11 *17:13 7.21442e-05
12 *17:14 7.35778e-05
13 *17:15 2.93269e-08
14 *17:16 2.48574e-08
15 *17:17 7.35778e-05
16 *17:19 2.48574e-08

*RES
1 *17:19 *354:A 8
2 *17:18 *606:A 8
3 *17:17 *598:A 8
4 *17:16 *17:19 0.00163042
5 *17:15 *17:18 8
6 *17:14 *17:17 4.82603
7 *17:13 *17:16 8
8 *17:13 *17:15 0.00171356
9 *17:12 *17:14 8
10 *17:12 *17:13 4.21363
11 *17:11 *17:12 5.26061
12 *17:8 *17:11 8
13 *17:7 *611:D 8
14 *17:6 *660:B 8
15 *17:6 *17:8 4.87495
16 *17:5 *17:7 12.2378
17 *17:4 *17:6 16.2827
18 *17:3 *17:5 8
19 *17:1 *17:4 8
20 *17:1 *17:3 15.7965
21 *17:0 *17 8
22 *17:0 *17:1 28.4237
*END

*D_NET *18 0.00252154

*CONN
*I *600:A I *C 15.1 19.355 *L 0.00358 *D NOR2X8LVT
*I *599:A I *C 8.1 22.895 *L 0.000435 *D NOR2X1LVT
*I *660:A I *C 9.415 19.31 *L 0.000879 *D NOR2X2LVT
*P *18 I *C 0 13.395 *L 0
*I *614:D I *C 13.325 12.415 *L 0.000343 *D DFFRHQX4LVT

*CAP
1 *18:1 4.22575e-06
2 *18:2 2.43602e-05
3 *18:3 2.01345e-05
4 *18:4 0.000211154
5 *18:5 0.000211154
6 *18:6 2.83374e-05
7 *18:7 0.00021649
8 *18:9 0.000188152
9 *18:10 0.000481602
10 *18:11 4.3782e-05
11 *18:12 0.00043782
12 *18:13 0.000159877
13 *18:14 9.40453e-06
14 *18:15 1.88091e-05
15 *18:16 0.000141068
16 *18:17 1.43543e-05
17 *18:19 0.000142291
18 *18 4.94975e-06
19 *18:21 0.000142291
20 *18:22 7.42463e-06
21 *18:23 1.0642e-05
22 *18:24 3.21734e-06

*RES
1 *18:24 *614:D 8
2 *18:23 *18:24 0.210996
3 *18:22 *18:23 0.486914
4 *18:21 *18:22 8
5 *18:19 *18:21 8.62833
6 *18:17 *18 0.324609
7 *18:16 *18:19 8
8 *18:15 *660:A 8
9 *18:14 *18:17 0.616758
10 *18:13 *18:16 9.25137
11 *18:13 *18:15 1.23352
12 *18:12 *18:14 8
13 *18:11 *18:13 8
14 *18:10 *18:12 26.5487
15 *18:10 *18:11 2.65487
16 *18:9 *18:10 8
17 *18:7 *18:9 12.3394
18 *18:7 *599:A 8
19 *18:6 *18:7 1.85867
20 *18:5 *18:6 8
21 *18:4 *18:5 12.3376
22 *18:3 *18:4 8
23 *18:2 *18:3 1.32064
24 *18:1 *18:2 0.277171
25 *600:A *18:1 8
*END

*D_NET *19 0.00335281

*CONN
*I *608:D I *C 13.325 15.835 *L 0.000343 *D DFFRHQX4LVT
*I *366:A I *C 14.71 24.39 *L 0.00358 *D NOR3X8LVT
*P *19 I *C 0 12.255 *L 0
*I *605:A I *C 14.995 20.99 *L 0.00179 *D NOR2X4LVT
*I *668:B I *C 9.94 22.64 *L 0.000878 *D NOR3BX2LVT
*I *582:A I *C 9.34 24.48 *L 0.000233 *D OR3X1LVT

*CAP
1 *19:0 4.3782e-05
2 *19:1 4.3782e-05
3 *19:3 0.000426991
4 *19:5 0.000246821
5 *19:6 0.000180171
6 *19:7 5.45481e-05
7 *19:9 0.000707352
8 *19:10 5.45481e-05
9 *19:11 0.000707352
10 *19:12 0.000176239
11 *19:14 0.000176239
12 *19:15 0.000155726
13 *19:17 0.000155726
14 *19:18 9.76895e-05
15 *19:19 8.84922e-05
16 *19:20 9.19723e-06
17 *19:22 1.40769e-05
18 *19:23 1.40769e-05

*RES
1 *19:24 *582:A 8
2 *19:23 *19:24 8
3 *19:22 *19:23 0.822507
4 *19:20 *19:22 8
5 *19:19 *668:B 8
6 *19:18 *19:20 0.603254
7 *19:18 *19:19 5.80428
8 *19:17 *19:18 8
9 *19:15 *19:17 9.09898
10 *19:14 *605:A 8
11 *19:14 *19:15 8
12 *19:12 *19:14 11.5597
13 *19:11 *19 8
14 *19:10 *19:12 8
15 *19:9 *19:11 42.8927
16 *19:7 *19:10 3.18721
17 *19:6 *19:9 8
18 *19:5 *366:A 8
19 *19:5 *19:7 8
20 *19:3 *19:6 11.8158
21 *19:3 *19:5 16.1886
22 *19:2 *608:D 8
23 *19:1 *19:3 8
24 *19:0 *19:2 8
25 *19:0 *19:1 2.65487
*END

*D_NET *20 0.00183957

*CONN
*P *20 O *C 47.8 19.855 *L 0
*I *541:Q O *C 36.34 17.88 *L 0 *D DFFRHQX1LVT

*CAP
1 *20 5.72653e-06
2 *20:1 5.72653e-06
3 *20:2 0.000785785
4 *20:3 0.000785785
5 *20:4 0.000108804
6 *20:5 0.000108804
7 *20:6 1.28817e-05
8 *20:7 1.28817e-05
9 *20:8 4.2949e-06
10 *20:9 6.58551e-06
11 *20:10 2.29061e-06

*RES
1 *20:10 *541:Q 8
2 *20:9 *20:10 0.131104
3 *20:8 *20:9 0.245819
4 *20:7 *20:8 8
5 *20:6 *20:7 0.680821
6 *20:5 *20:6 8
7 *20:4 *20:5 6.22742
8 *20:3 *20:4 8
9 *20:2 *20:3 41.5301
10 *20:1 *20:2 8
11 *20 *20:1 0.327759
*END

*D_NET *21 0.0018178

*CONN
*P *21 O *C 47.8 20.235 *L 0
*I *544:Q O *C 35.94 21.3 *L 0 *D DFFRHQX1LVT

*CAP
1 *21 5.72653e-06
2 *21:1 1.66069e-05
3 *21:2 1.08804e-05
4 *21:3 0.000772903
5 *21:4 0.000772903
6 *21:5 8.70432e-05
7 *21:6 8.70432e-05
8 *21:7 2.57634e-05
9 *21:8 2.57634e-05
10 *21:9 4.2949e-06
11 *21:10 6.58551e-06
12 *21:11 2.29061e-06

*RES
1 *21:11 *544:Q 8
2 *21:10 *21:11 0.131104
3 *21:9 *21:10 0.245819
4 *21:8 *21:9 8
5 *21:7 *21:8 1.36164
6 *21:6 *21:7 8
7 *21:5 *21:6 4.98194
8 *21:4 *21:5 8
9 *21:3 *21:4 40.8493
10 *21:2 *21:3 8
11 *21:1 *21:2 0.622742
12 *21 *21:1 0.327759
*END

*D_NET *22 0.00214665

*CONN
*P *22 O *C 47.8 20.615 *L 0
*I *547:Q O *C 31.94 21.3 *L 0 *D DFFRHQX1LVT

*CAP
1 *22 5.72653e-06
2 *22:1 2.74873e-05
3 *22:2 2.17608e-05
4 *22:3 0.00102459
5 *22:4 0.00102459
6 *22:5 1.87824e-05
7 *22:6 2.12457e-05
8 *22:7 2.46327e-06

*RES
1 *22:7 *547:Q 8
2 *22:6 *22:7 0.130957
3 *22:5 *22:6 0.998546
4 *22:4 *22:5 8
5 *22:3 *22:4 53.987
6 *22:2 *22:3 8
7 *22:1 *22:2 1.24548
8 *22 *22:1 0.327759
*END

*D_NET *23 0.00232005

*CONN
*P *23 O *C 47.8 20.995 *L 0
*I *550:Q O *C 35.94 29.24 *L 0 *D DFFRHQX1LVT

*CAP
1 *23 5.72653e-06
2 *23:1 1.66069e-05
3 *23:2 1.08804e-05
4 *23:3 0.000721376
5 *23:4 0.000721376
6 *23:5 0.000402575
7 *23:6 0.000402575
8 *23:7 1.28817e-05
9 *23:8 1.28817e-05
10 *23:9 4.2949e-06
11 *23:10 6.58551e-06
12 *23:11 2.29061e-06

*RES
1 *23:11 *550:Q 8
2 *23:10 *23:11 0.131104
3 *23:9 *23:10 0.245819
4 *23:8 *23:9 8
5 *23:7 *23:8 0.680821
6 *23:6 *23:7 8
7 *23:5 *23:6 23.0415
8 *23:4 *23:5 8
9 *23:3 *23:4 38.126
10 *23:2 *23:3 8
11 *23:1 *23:2 0.622742
12 *23 *23:1 0.327759
*END

*D_NET *24 0.00267681

*CONN
*P *24 O *C 47.8 21.375 *L 0
*I *553:Q O *C 36.34 32.66 *L 0 *D DFFRHQX1LVT

*CAP
1 *24 5.72653e-06
2 *24:1 5.72653e-06
3 *24:2 0.00074714
4 *24:3 0.00074714
5 *24:4 0.000583247
6 *24:5 0.000585537
7 *24:6 2.29061e-06

*RES
1 *24:6 *553:Q 8
2 *24:5 *24:6 0.131104
3 *24:4 *24:5 33.3822
4 *24:3 *24:4 8
5 *24:2 *24:3 39.4876
6 *24:1 *24:2 8
7 *24 *24:1 0.327759
*END

*D_NET *25 0.00236757

*CONN
*P *25 O *C 47.8 21.755 *L 0
*I *557:Q O *C 36.14 31.56 *L 0 *D DFFRHQX1LVT

*CAP
1 *25 5.72653e-06
2 *25:1 5.72653e-06
3 *25:3 0.000424336
4 *25:4 0.000424336
5 *25:5 0.00074714
6 *25:6 0.00074714
7 *25:7 4.2949e-06
8 *25:8 6.58551e-06
9 *25:9 2.29061e-06

*RES
1 *25:9 *557:Q 8
2 *25:8 *25:9 0.131104
3 *25:7 *25:8 0.245819
4 *25:6 *25:7 8
5 *25:5 *25:6 39.4876
6 *25:4 *25:5 8
7 *25:3 *25:4 24.2869
8 *25:2 *25:3 8
9 *25:1 *25:2 8
10 *25 *25:1 0.327759
*END

*D_NET *26 0.00314055

*CONN
*P *26 O *C 47.8 22.135 *L 0
*I *573:Q O *C 36.34 36.08 *L 0 *D DFFRHQX1LVT

*CAP
1 *26 5.72653e-06
2 *26:1 3.83677e-05
3 *26:2 3.26412e-05
4 *26:3 0.000984139
5 *26:4 0.000984139
6 *26:5 0.000545306
7 *26:6 0.000545306
8 *26:8 2.46327e-06
9 *26:9 2.46327e-06

*RES
1 *26:9 *573:Q 8
2 *26:8 *26:9 0.130957
3 *26:7 *26:8 8
4 *26:6 *26:7 8
5 *26:5 *26:6 28.9906
6 *26:4 *26:5 8
7 *26:3 *26:4 51.8918
8 *26:2 *26:3 8
9 *26:1 *26:2 1.86823
10 *26 *26:1 0.327759
*END

*D_NET *27 0.00261975

*CONN
*P *27 O *C 47.8 22.515 *L 0
*I *579:Q O *C 34.14 34.98 *L 0 *D DFFRHQX1LVT

*CAP
1 *27 5.72653e-06
2 *27:1 0.000332139
3 *27:2 0.000326412
4 *27:3 0.000970654
5 *27:4 0.000970654
6 *27:5 4.61863e-06
7 *27:6 7.0819e-06
8 *27:7 2.46327e-06

*RES
1 *27:7 *579:Q 8
2 *27:6 *27:7 0.130957
3 *27:5 *27:6 0.245544
4 *27:4 *27:5 8
5 *27:3 *27:4 51.1934
6 *27:2 *27:3 8
7 *27:1 *27:2 18.6823
8 *27 *27:1 0.327759
*END

*D_NET *28 0.00186533

*CONN
*P *28 O *C 47.8 22.895 *L 0
*I *559:Q O *C 32.74 28.14 *L 0 *D DFFRHQX1LVT

*CAP
1 *28 5.72653e-06
2 *28:1 1.66069e-05
3 *28:2 1.08804e-05
4 *28:3 0.000785785
5 *28:4 0.000785785
6 *28:5 9.79236e-05
7 *28:6 9.79236e-05
8 *28:7 2.57634e-05
9 *28:8 2.57634e-05
10 *28:9 4.2949e-06
11 *28:10 6.58551e-06
12 *28:11 2.29061e-06

*RES
1 *28:11 *559:Q 8
2 *28:10 *28:11 0.131104
3 *28:9 *28:10 0.245819
4 *28:8 *28:9 8
5 *28:7 *28:8 1.36164
6 *28:6 *28:7 8
7 *28:5 *28:6 5.60468
8 *28:4 *28:5 8
9 *28:3 *28:4 41.5301
10 *28:2 *28:3 8
11 *28:1 *28:2 0.622742
12 *28 *28:1 0.327759
*END

*D_NET *29 0.00163629

*CONN
*P *29 O *C 47.8 23.275 *L 0
*I *560:Q O *C 32.74 22.4 *L 0 *D DFFRHQX1LVT

*CAP
1 *29 5.72653e-06
2 *29:1 2.74873e-05
3 *29:2 2.17608e-05
4 *29:3 0.000760021
5 *29:4 0.000760021
6 *29:5 2.83463e-05
7 *29:6 3.06369e-05
8 *29:7 2.29061e-06

*RES
1 *29:7 *560:Q 8
2 *29:6 *29:7 0.131104
3 *29:5 *29:6 1.62241
4 *29:4 *29:5 8
5 *29:3 *29:4 40.1684
6 *29:2 *29:3 8
7 *29:1 *29:2 1.24548
8 *29 *29:1 0.327759
*END

*D_NET *30 0.00226424

*CONN
*P *30 O *C 47.8 23.655 *L 0
*I *563:Q O *C 32.74 24.72 *L 0 *D DFFRHQX1LVT

*CAP
1 *30 5.72653e-06
2 *30:1 5.72653e-06
3 *30:2 1.28817e-05
4 *30:3 1.28817e-05
5 *30:4 6.52824e-05
6 *30:5 6.52824e-05
7 *30:6 0.00103868
8 *30:7 0.00103868
9 *30:8 7.0819e-06
10 *30:9 9.54517e-06
11 *30:10 2.46327e-06

*RES
1 *30:10 *563:Q 8
2 *30:9 *30:10 0.130957
3 *30:8 *30:9 0.376501
4 *30:7 *30:8 8
5 *30:6 *30:7 54.703
6 *30:5 *30:6 8
7 *30:4 *30:5 3.73645
8 *30:3 *30:4 8
9 *30:2 *30:3 0.680821
10 *30:1 *30:2 8
11 *30 *30:1 0.327759
*END

*D_NET *31 0.00217362

*CONN
*P *31 O *C 47.8 24.035 *L 0
*I *562:Q O *C 36.34 24.72 *L 0 *D DFFRHQX1LVT

*CAP
1 *31 5.72653e-06
2 *31:1 2.74873e-05
3 *31:2 2.17608e-05
4 *31:3 0.00103808
5 *31:4 0.00103808
6 *31:5 1.87824e-05
7 *31:6 2.12457e-05
8 *31:7 2.46327e-06

*RES
1 *31:7 *562:Q 8
2 *31:6 *31:7 0.130957
3 *31:5 *31:6 0.998546
4 *31:4 *31:5 8
5 *31:3 *31:4 54.6855
6 *31:2 *31:3 8
7 *31:1 *31:2 1.24548
8 *31 *31:1 0.327759
*END

*D_NET *32 0.0026789

*CONN
*P *32 O *C 47.8 24.415 *L 0
*I *569:Q O *C 36.34 22.4 *L 0 *D DFFRHQX1LVT

*CAP
1 *32 5.72653e-06
2 *32:1 5.72653e-06
3 *32:5 0.000315532
4 *32:6 0.000315532
5 *32:7 0.00101111
6 *32:8 0.00101111
7 *32:9 4.61863e-06
8 *32:10 4.61863e-06
9 *32:12 2.46327e-06
10 *32:13 2.46327e-06

*RES
1 *32:13 *569:Q 8
2 *32:12 *32:13 0.130957
3 *32:11 *32:12 8
4 *32:10 *32:11 8
5 *32:9 *32:10 0.245544
6 *32:8 *32:9 8
7 *32:7 *32:8 53.2886
8 *32:6 *32:7 8
9 *32:5 *32:6 18.0595
10 *32:4 *32:5 8
11 *32:3 *32:4 8
12 *32:2 *32:3 8
13 *32:1 *32:2 8
14 *32 *32:1 0.327759
*END

*D_NET *33 0.00154467

*CONN
*P *33 O *C 47.8 24.795 *L 0
*I *561:Q O *C 36.14 25.82 *L 0 *D DFFRHQX1LVT

*CAP
1 *33 5.72653e-06
2 *33:1 5.72653e-06
3 *33:2 0.000760021
4 *33:3 0.000760021
5 *33:4 4.2949e-06
6 *33:5 6.58551e-06
7 *33:6 2.29061e-06

*RES
1 *33:6 *561:Q 8
2 *33:5 *33:6 0.131104
3 *33:4 *33:5 0.245819
4 *33:3 *33:4 8
5 *33:2 *33:3 40.1684
6 *33:1 *33:2 8
7 *33 *33:1 0.327759
*END

*D_NET *34 0.00160194

*CONN
*P *34 O *C 47.8 25.175 *L 0
*I *564:Q O *C 32.54 25.82 *L 0 *D DFFRHQX1LVT

*CAP
1 *34 5.72653e-06
2 *34:1 1.66069e-05
3 *34:2 1.08804e-05
4 *34:3 0.000708495
5 *34:4 0.000708495
6 *34:5 4.35216e-05
7 *34:6 4.35216e-05
8 *34:7 2.57634e-05
9 *34:8 2.57634e-05
10 *34:9 4.2949e-06
11 *34:10 6.58551e-06
12 *34:11 2.29061e-06

*RES
1 *34:11 *564:Q 8
2 *34:10 *34:11 0.131104
3 *34:9 *34:10 0.245819
4 *34:8 *34:9 8
5 *34:7 *34:8 1.36164
6 *34:6 *34:7 8
7 *34:5 *34:6 2.49097
8 *34:4 *34:5 8
9 *34:3 *34:4 37.4451
10 *34:2 *34:3 8
11 *34:1 *34:2 0.622742
12 *34 *34:1 0.327759
*END

*D_NET *35 0.00246549

*CONN
*P *35 O *C 47.8 25.555 *L 0
*I *568:Q O *C 36.34 28.14 *L 0 *D DFFRHQX1LVT

*CAP
1 *35 5.72653e-06
2 *35:1 5.72653e-06
3 *35:2 0.000997624
4 *35:3 0.000997624
5 *35:4 0.000226929
6 *35:5 0.000229392
7 *35:6 2.46327e-06

*RES
1 *35:6 *568:Q 8
2 *35:5 *35:6 0.130957
3 *35:4 *35:5 12.0644
4 *35:3 *35:4 8
5 *35:2 *35:3 52.5902
6 *35:1 *35:2 8
7 *35 *35:1 0.327759
*END

*D_NET *36 0.00359835

*CONN
*I *641:Q O *C 26.94 31.56 *L 0 *D DFFRHQX1LVT
*I *642:A0N I *C 25.645 31.52 *L 0.000233 *D OAI2BB1X1LVT
*P *36 O *C 47.8 25.935 *L 0

*CAP
1 *36:0 2.46327e-06
2 *36:1 0.000346397
3 *36:3 3.33755e-05
4 *36:4 0.000343934
5 *36:5 3.33755e-05
6 *36:6 0.0014194
7 *36:8 0.0014194

*RES
1 *36:8 *36 8
2 *36:7 *642:A0N 8
3 *36:6 *36:8 74.4415
4 *36:5 *36:7 8
5 *36:4 *36:6 8
6 *36:3 *36:5 1.72855
7 *36:1 *36:4 18.2849
8 *36:1 *36:3 8
9 *36:0 *641:Q 8
10 *36:0 *36:1 0.130957
*END

*D_NET *37 0.00459855

*CONN
*I *601:A I *C 9.54 26.265 *L 0.00179 *D NAND2X4LVT
*I *604:A I *C 15.21 29.54 *L 0.000884 *D NAND2X2LVT
*I *603:B I *C 15.165 31.13 *L 0.000233 *D NAND2BXLLVT
*I *407:B I *C 9.1 29.545 *L 0.000233 *D AND2XLLVT
*I *577:A I *C 18.14 25.795 *L 0.000884 *D NAND4X2LVT
*I *594:C I *C 18.165 31.13 *L 0.000233 *D NAND3BXLLVT
*I *632:A0N I *C 22.845 31.52 *L 0.000233 *D OAI2BB1X1LVT
*I *346:Y O *C 26.73 31.69 *L 0 *D INVX3LVT
*I *581:SE I *C 31.83 36.475 *L 0.000668 *D SDFFRHQX1LVT

*CAP
1 *37:0 0.000172585
2 *37:1 0.00037708
3 *37:2 0.000172585
4 *37:3 0.000352521
5 *37:4 2.73562e-05
6 *37:6 0.000194635
7 *37:7 8.37892e-05
8 *37:8 2.63488e-07
9 *37:10 0.000193624
10 *37:12 8.37892e-05
11 *37:13 2.63488e-07
12 *37:15 1.78677e-06
13 *37:16 0.000244461
14 *37:20 0.00010379
15 *37:21 0.000244461
16 *37:25 0.00010379
17 *37:30 0.000405954
18 *37:33 0.000405954
19 *37:36 2.54579e-05
20 *37:38 2.54579e-05
21 *37:39 0.000149017
22 *37:41 0.000149017
23 *37:43 0.000222687
24 *37:45 0.000222687
25 *37:46 0.000246151
26 *37:48 0.000246151
27 *37:50 7.1618e-05
28 *37:52 7.1618e-05

*RES
1 *37:54 *581:SE 8
2 *37:53 *37:54 8
3 *37:52 *37:53 8
4 *37:50 *37:52 4.43092
5 *37:49 *346:Y 8
6 *37:48 *37:50 8
7 *37:47 *37:49 8
8 *37:46 *37:48 14.7381
9 *37:45 *37:47 8
10 *37:45 *37:46 8
11 *37:43 *37:45 11.7281
12 *37:42 *632:A0N 8
13 *37:41 *37:43 8
14 *37:40 *37:42 8
15 *37:39 *37:41 7.28086
16 *37:38 *37:40 8
17 *37:38 *37:39 8
18 *37:36 *37:38 1.27683
19 *37:34 *594:C 8
20 *37:33 *37:36 8
21 *37:32 *577:A 8
22 *37:31 *37:34 8
23 *37:30 *37:33 19.8347
24 *37:26 *37:32 8
25 *37:25 *37:31 8
26 *37:25 *37:30 8
27 *37:24 *407:B 8
28 *37:23 *603:B 8
29 *37:22 *604:A 8
30 *37:21 *37:26 8
31 *37:20 *37:25 5.20554
32 *37:19 *37:24 8
33 *37:18 *37:23 8
34 *37:17 *37:22 8
35 *37:16 *37:21 12.2608
36 *37:15 *37:20 8
37 *37:13 *37:19 8
38 *37:12 *37:18 8
39 *37:11 *37:17 8
40 *37:10 *37:16 8
41 *37:10 *37:15 0.0873005
42 *37:9 *601:A 8
43 *37:8 *37:13 0.0163042
44 *37:7 *37:12 5.18472
45 *37:6 *37:11 8
46 *37:6 *37:10 10.1089
47 *37:5 *37:9 8
48 *37:4 *37:8 8
49 *37:3 *37:7 8
50 *37:3 *37:6 0.15422
51 *37:2 *37:5 8
52 *37:1 *37:4 1.50793
53 *37:1 *37:3 19.2775
54 *37:0 *37:2 10.6792
55 *37:0 *37:1 8
*END

*D_NET *38 0.00648022

*CONN
*I *643:A0 I *C 12.5 32.965 *L 0.000435 *D OAI221X1LVT
*I *662:A I *C 17.3 31.255 *L 0.000436 *D NAND2X1LVT
*I *582:C I *C 8.7 24.225 *L 0.000233 *D OR3X1LVT
*I *394:A I *C 22.01 31.26 *L 0.000884 *D NAND2X2LVT
*I *650:B I *C 12.9 34.485 *L 0.000435 *D NAND3BX1LVT
*I *642:A1N I *C 25.9 31.065 *L 0.000233 *D OAI2BB1X1LVT
*I *556:A1N I *C 29.7 33.155 *L 0.000233 *D OAI2BB1X1LVT
*I *347:Y O *C 26.55 34.755 *L 0 *D INVX4LVT
*I *570:SE I *C 33.03 34.585 *L 0.000668 *D SDFFRHQX1LVT
*I *552:SE I *C 34.43 33.055 *L 0.000668 *D SDFFRHQX1LVT
*I *549:SE I *C 35.03 31.165 *L 0.000668 *D SDFFRHQX1LVT
*I *546:SE I *C 34.03 29.635 *L 0.000668 *D SDFFRHQX1LVT
*I *543:SE I *C 30.675 27.695 *L 0.000668 *D SDFFRHQX2LVT

*CAP
1 *38:0 9.01129e-05
2 *38:1 0.000496757
3 *38:2 9.01129e-05
4 *38:3 0.000722683
5 *38:4 0.000196467
6 *38:5 6.21731e-05
7 *38:7 0.000614649
8 *38:9 0.000357026
9 *38:10 6.21731e-05
10 *38:12 0.000192256
11 *38:13 3.26383e-07
12 *38:15 0.000357026
13 *38:16 8.00348e-05
14 *38:18 0.000136428
15 *38:19 3.26383e-07
16 *38:22 8.00348e-05
17 *38:23 0.000124026
18 *38:24 1.24026e-05
19 *38:29 1.78677e-05
20 *38:34 0.000271589
21 *38:38 0.00039166
22 *38:39 9.73335e-05
23 *38:41 0.000337321
24 *38:43 9.73335e-05
25 *38:44 0.000199383
26 *38:45 8.8414e-05
27 *38:48 6.07012e-06
28 *38:49 8.8414e-05
29 *38:52 0.000120795
30 *38:56 0.000207598
31 *38:60 9.28728e-05
32 *38:64 2.78528e-05
33 *38:67 2.78528e-05
34 *38:68 0.000126637
35 *38:70 0.000126637
36 *38:72 0.000239785
37 *38:74 0.000239785

*RES
1 *38:77 *543:SE 8
2 *38:76 *38:77 8
3 *38:75 *38:76 8
4 *38:74 *38:75 8
5 *38:72 *38:74 11.7157
6 *38:71 *546:SE 8
7 *38:70 *38:72 8
8 *38:69 *38:71 8
9 *38:68 *38:70 6.35141
10 *38:68 *38:69 8
11 *38:67 *38:68 8
12 *38:64 *38:67 1.37659
13 *38:63 *549:SE 8
14 *38:61 *552:SE 8
15 *38:60 *38:64 8
16 *38:59 *38:63 8
17 *38:58 *570:SE 8
18 *38:57 *38:61 8
19 *38:56 *38:60 5.01471
20 *38:56 *38:59 8
21 *38:53 *38:58 8
22 *38:52 *38:57 8
23 *38:52 *38:56 6.19464
24 *38:51 *347:Y 8
25 *38:50 *556:A1N 8
26 *38:49 *38:53 8
27 *38:48 *38:52 0.327759
28 *38:47 *38:51 8
29 *38:46 *38:50 8
30 *38:45 *38:49 4.671
31 *38:44 *38:48 8
32 *38:43 *38:47 8
33 *38:42 *38:46 8
34 *38:41 *38:45 8
35 *38:41 *38:44 9.75743
36 *38:39 *38:43 5.22283
37 *38:38 *38:42 8
38 *38:38 *38:41 6.73959
39 *38:35 *642:A1N 8
40 *38:34 *38:39 8
41 *38:34 *38:38 12.3967
42 *38:33 *650:B 8
43 *38:31 *394:A 8
44 *38:30 *38:35 8
45 *38:29 *38:34 0.873005
46 *38:28 *38:33 8
47 *38:27 *582:C 8
48 *38:25 *38:31 8
49 *38:24 *38:30 8
50 *38:23 *38:29 8
51 *38:22 *38:28 8
52 *38:21 *38:27 8
53 *38:20 *662:A 8
54 *38:19 *38:25 8
55 *38:18 *38:24 0.622045
56 *38:18 *38:23 6.22045
57 *38:16 *38:22 4.95227
58 *38:15 *38:21 8
59 *38:14 *38:20 8
60 *38:13 *38:19 0.0163696
61 *38:12 *38:18 8
62 *38:11 *643:A0 8
63 *38:10 *38:16 8
64 *38:9 *38:15 22.0921
65 *38:8 *38:14 8
66 *38:7 *38:13 8
67 *38:7 *38:12 9.39353
68 *38:6 *38:11 8
69 *38:5 *38:10 3.42711
70 *38:4 *38:9 8
71 *38:3 *38:8 8
72 *38:3 *38:7 20.6378
73 *38:2 *38:6 8
74 *38:2 *38:5 8
75 *38:1 *38:4 10.8297
76 *38:1 *38:3 16.4631
77 *38:0 *38:2 5.57603
78 *38:0 *38:1 8
*END

*D_NET *39 0.0016251

*CONN
*I *348:Y O *C 27.73 33.02 *L 0 *D INVX2LVT
*I *398:A0 I *C 19.14 29.48 *L 0.000882 *D OAI21X2LVT

*CAP
1 *39:0 0.000355851
2 *39:1 0.000355851
3 *39:3 0.000456698
4 *39:4 0.000456698

*RES
1 *39:5 *398:A0 8
2 *39:4 *39:5 8
3 *39:3 *39:4 22.314
4 *39:1 *39:3 8
5 *39:0 *348:Y 8
6 *39:0 *39:1 18.4069
*END

*D_NET *40 0.00139042

*CONN
*I *349:Y O *C 27.415 34.93 *L 0 *D CLKINVX4LVT
*I *346:A I *C 26.1 31.065 *L 0.00133 *D INVX3LVT
*I *395:AN I *C 23.3 32.76 *L 0.000234 *D NOR2BX2LVT
*I *596:A I *C 18.9 31.255 *L 0.000436 *D NAND2X1LVT

*CAP
1 *40:0 7.08309e-06
2 *40:1 7.08309e-06
3 *40:3 2.35211e-05
4 *40:4 2.35211e-05
5 *40:5 0.000108952
6 *40:7 0.000108952
7 *40:8 0.000142942
8 *40:9 0.000142942
9 *40:10 9.82413e-05
10 *40:12 9.82413e-05
11 *40:13 0.000314472
12 *40:14 0.000314472

*RES
1 *40:15 *596:A 8
2 *40:14 *40:15 8
3 *40:13 *40:14 15.3649
4 *40:12 *40:13 8
5 *40:10 *40:12 4.92725
6 *40:10 *395:AN 8
7 *40:9 *40:10 8
8 *40:8 *40:9 6.98404
9 *40:7 *40:8 8
10 *40:5 *40:7 5.63959
11 *40:5 *346:A 8
12 *40:4 *40:5 8
13 *40:3 *40:4 1.40831
14 *40:1 *40:3 8
15 *40:0 *349:Y 8
16 *40:0 *40:1 0.438223
*END

*D_NET *41 0.000174649

*CONN
*I *352:Y O *C 17.73 24.85 *L 0 *D INVX1LVT
*I *353:B I *C 16.54 21.06 *L 0.000878 *D NOR3BX2LVT

*CAP
1 *41:0 7.45139e-05
2 *41:1 7.45139e-05
3 *41:3 1.28108e-05
4 *41:4 1.28108e-05

*RES
1 *41:5 *353:B 8
2 *41:4 *41:5 8
3 *41:3 *41:4 0.663483
4 *41:1 *41:3 8
5 *41:0 *352:Y 8
6 *41:0 *41:1 3.96145
*END

*D_NET *42 0.000523714

*CONN
*I *353:C I *C 16.34 21.375 *L 0.000878 *D NOR3BX2LVT
*I *351:Y O *C 16.73 24.85 *L 0 *D INVX1LVT

*CAP
1 *42:0 0.000213996
2 *42:1 0.000213996
3 *42:3 4.78605e-05
4 *42:4 4.78605e-05

*RES
1 *42:5 *351:Y 8
2 *42:4 *42:5 8
3 *42:3 *42:4 2.77856
4 *42:1 *42:3 8
5 *42:0 *353:C 8
6 *42:0 *42:1 11.3769
*END

*D_NET *43 0.000536215

*CONN
*I *367:A I *C 12.47 26.1 *L 0.00267 *D NAND2X6LVT
*I *354:Y O *C 11.58 19.475 *L 0 *D NOR2X6LVT

*CAP
1 *43:0 0.000180713
2 *43:1 0.000180713
3 *43:3 8.73942e-05
4 *43:4 8.73942e-05

*RES
1 *43:5 *354:Y 8
2 *43:4 *43:5 8
3 *43:3 *43:4 5.10639
4 *43:1 *43:3 8
5 *43:0 *367:A 8
6 *43:0 *43:1 11.8531
*END

*D_NET *44 0.000413555

*CONN
*I *355:A0 I *C 19.34 26.06 *L 0.000882 *D OAI21X2LVT
*I *356:Y O *C 15.61 26.365 *L 0 *D CLKBUFX2LVT

*CAP
1 *44:0 1.87824e-05
2 *44:1 1.87824e-05
3 *44:3 0.000187995
4 *44:4 0.000187995

*RES
1 *44:5 *356:Y 8
2 *44:4 *44:5 8
3 *44:3 *44:4 10.1609
4 *44:1 *44:3 8
5 *44:0 *355:A0 8
6 *44:0 *44:1 0.998546
*END

*D_NET *45 0.000101327

*CONN
*I *357:Y O *C 24.155 27.88 *L 0 *D NAND2X1LVT
*I *358:B I *C 24.5 27.455 *L 0.000433 *D NAND2X1LVT

*CAP
1 *45:0 2.0322e-05
2 *45:1 2.0322e-05
3 *45:3 3.03414e-05
4 *45:4 3.03414e-05

*RES
1 *45:5 *358:B 9.04
2 *45:4 *45:5 9.04
3 *45:3 *45:4 1.77569
4 *45:1 *45:3 9.04
5 *45:0 *357:Y 9.04
6 *45:0 *45:1 1.22085
*END

*D_NET *46 0.000992631

*CONN
*I *571:B I *C 20.7 25.935 *L 0.000878 *D OR2X6LVT
*I *361:Y O *C 13.14 29.405 *L 0 *D NOR2X4LVT

*CAP
1 *46:0 0.000102226
2 *46:1 0.000102226
3 *46:3 0.00039409
4 *46:4 0.00039409

*RES
1 *46:5 *361:Y 8
2 *46:4 *46:5 8
3 *46:3 *46:4 21.9522
4 *46:1 *46:3 8
5 *46:0 *571:B 8
6 *46:0 *46:1 5.43471
*END

*D_NET *47 0.000192275

*CONN
*I *363:A I *C 28.01 14.16 *L 0.000884 *D NAND2X2LVT
*I *362:Y O *C 27.13 14.59 *L 0 *D INVX1LVT

*CAP
1 *47:0 2.87181e-05
2 *47:1 2.87181e-05
3 *47:3 6.74195e-05
4 *47:4 6.74195e-05

*RES
1 *47:5 *362:Y 8
2 *47:4 *47:5 8
3 *47:3 *47:4 4.0274
4 *47:1 *47:3 8
5 *47:0 *363:A 8
6 *47:0 *47:1 1.87489
*END

*D_NET *48 0.00316173

*CONN
*I *364:B I *C 29.3 20.805 *L 0.000876 *D NAND2X2LVT
*I *365:Y O *C 17.165 27.71 *L 0 *D OR2X6LVT
*I *378:B I *C 18.7 24.415 *L 0.000588 *D CLKAND2X3LVT
*I *647:A1N I *C 17.3 34.485 *L 0.000233 *D OAI2BB1X1LVT
*I *519:A I *C 24.3 31.065 *L 0.000884 *D INVX2LVT

*CAP
1 *48:0 0.0005866
2 *48:1 0.0005866
3 *48:3 0.000323612
4 *48:5 0.000319301
5 *48:6 4.31072e-06
6 *48:7 0.000103498
7 *48:9 0.000166203
8 *48:10 0.000103498
9 *48:11 0.000166203
10 *48:12 0.000191211
11 *48:14 0.000293072
12 *48:16 0.000101861
13 *48:17 0.00010788
14 *48:19 0.00010788

*RES
1 *48:20 *519:A 8
2 *48:19 *48:20 8
3 *48:17 *48:19 5.58723
4 *48:16 *647:A1N 8
5 *48:14 *48:17 8
6 *48:14 *48:16 5.59048
7 *48:13 *378:B 8
8 *48:12 *48:14 10.1655
9 *48:11 *48:13 8
10 *48:10 *48:12 8
11 *48:9 *48:11 8.60783
12 *48:7 *48:10 5.36025
13 *48:6 *48:9 8
14 *48:5 *365:Y 8
15 *48:5 *48:7 8
16 *48:3 *48:6 0.229175
17 *48:3 *48:5 16.9753
18 *48:2 *364:B 8
19 *48:1 *48:3 8
20 *48:0 *48:2 8
21 *48:0 *48:1 30.3806
*END

*D_NET *49 0.000452968

*CONN
*I *366:Y O *C 15.565 24.645 *L 0 *D NOR3X8LVT
*I *367:B I *C 12.125 26.105 *L 0.00265 *D NAND2X6LVT

*CAP
1 *49:0 7.62127e-05
2 *49:1 7.62127e-05
3 *49:3 0.000150271
4 *49:4 0.000150271

*RES
1 *49:5 *367:B 8
2 *49:4 *49:5 8
3 *49:3 *49:4 8.36215
4 *49:1 *49:3 8
5 *49:0 *366:Y 8
6 *49:0 *49:1 4.76082
*END

*D_NET *50 0.000361054

*CONN
*I *368:Y O *C 14.81 12.685 *L 0 *D CLKBUFX2LVT
*I *457:B I *C 13.965 14.035 *L 0.000434 *D NOR2BX1LVT
*I *458:AN I *C 15.1 14.155 *L 0.000234 *D NOR2BX1LVT

*CAP
1 *50:0 9.05805e-05
2 *50:1 9.65202e-05
3 *50:3 5.9397e-06
4 *50:4 2.43537e-05
5 *50:5 5.96529e-05
6 *50:6 2.43537e-05
7 *50:7 5.96529e-05

*RES
1 *50:9 *458:AN 8
2 *50:8 *457:B 8
3 *50:7 *50:9 8
4 *50:6 *50:8 8
5 *50:5 *50:7 3.61726
6 *50:4 *50:6 1.47677
7 *50:3 *50:5 8
8 *50:1 *50:4 8
9 *50:1 *50:3 0.389531
10 *50:0 *368:Y 8
11 *50:0 *50:1 5.94035
*END

*D_NET *51 8.3659e-05

*CONN
*I *372:A I *C 35.3 15.865 *L 0.000436 *D NAND2X1LVT
*I *371:Y O *C 31.53 15.43 *L 0 *D INVX1LVT

*CAP
1 *51:0 1.97107e-05
2 *51:1 1.97107e-05
3 *51:3 2.21188e-05
4 *51:4 2.21188e-05

*RES
1 *51:5 *371:Y 8
2 *51:4 *51:5 8
3 *51:3 *51:4 1.55823
4 *51:1 *51:3 8
5 *51:0 *372:A 8
6 *51:0 *51:1 1.39582
*END

*D_NET *52 6.96813e-05

*CONN
*I *373:Y O *C 14.01 10.495 *L 0 *D CLKBUFX2LVT
*I *386:B I *C 14.9 10.355 *L 0.000433 *D NAND2X1LVT

*CAP
1 *52:0 6.92965e-06
2 *52:1 6.92965e-06
3 *52:3 2.7911e-05
4 *52:4 2.7911e-05

*RES
1 *52:5 *386:B 8
2 *52:4 *52:5 8
3 *52:3 *52:4 1.69248
4 *52:1 *52:3 8
5 *52:0 *373:Y 8
6 *52:0 *52:1 0.454453
*END

*D_NET *53 0.000532418

*CONN
*I *379:AN I *C 20.9 20.995 *L 0.000234 *D NAND3BX1LVT
*I *378:Y O *C 20.025 24.895 *L 0 *D CLKAND2X3LVT

*CAP
1 *53:0 0.000141607
2 *53:1 0.000141607
3 *53:3 0.000124602
4 *53:4 0.000124602

*RES
1 *53:5 *378:Y 8.56
2 *53:4 *53:5 8.56
3 *53:3 *53:4 6.57617
4 *53:1 *53:3 8.56
5 *53:0 *379:AN 8.56
6 *53:0 *53:1 7.67178
*END

*D_NET *54 0.000369468

*CONN
*I *377:Y O *C 20.55 18.66 *L 0 *D NAND2BX2LVT
*I *379:B I *C 20.5 20.805 *L 0.000435 *D NAND3BX1LVT

*CAP
1 *54:0 5.26985e-05
2 *54:1 5.26985e-05
3 *54:3 0.000132036
4 *54:4 0.000132036

*RES
1 *54:5 *379:B 8.56
2 *54:4 *54:5 8.56
3 *54:3 *54:4 6.9685
4 *54:1 *54:3 8.56
5 *54:0 *377:Y 8.56
6 *54:0 *54:1 2.85502
*END

*D_NET *55 0.00140454

*CONN
*I *377:AN I *C 20.9 19.285 *L 0.000234 *D NAND2BX2LVT
*I *376:Y O *C 18.93 18.01 *L 0 *D INVX1LVT

*CAP
1 *55:0 0.000449134
2 *55:1 0.000449134
3 *55:3 0.000253134
4 *55:4 0.000253134

*RES
1 *55:5 *376:Y 8.56
2 *55:4 *55:5 8.56
3 *55:3 *55:4 15.5634
4 *55:1 *55:3 8.56
5 *55:0 *377:AN 8.56
6 *55:0 *55:1 25.4614
*END

*D_NET *56 0.000485593

*CONN
*I *375:Y O *C 21.95 18.66 *L 0 *D NAND2BX2LVT
*I *379:C I *C 20.3 20.805 *L 0.000432 *D NAND3BX1LVT

*CAP
1 *56:0 8.24425e-05
2 *56:1 8.24425e-05
3 *56:3 0.000160354
4 *56:4 0.000160354

*RES
1 *56:5 *379:C 8.56
2 *56:4 *56:5 8.56
3 *56:3 *56:4 8.46308
4 *56:1 *56:3 8.56
5 *56:0 *375:Y 8.56
6 *56:0 *56:1 4.46645
*END

*D_NET *57 0.00125652

*CONN
*I *375:AN I *C 22.3 19.285 *L 0.000234 *D NAND2BX2LVT
*I *374:Y O *C 21.53 21.43 *L 0 *D INVX1LVT

*CAP
1 *57:0 0.000193012
2 *57:1 0.000193012
3 *57:3 0.000435249
4 *57:4 0.000435249

*RES
1 *57:5 *374:Y 8.56
2 *57:4 *57:5 8.56
3 *57:3 *57:4 23.0421
4 *57:1 *57:3 8.56
5 *57:0 *375:AN 8.56
6 *57:0 *57:1 10.4567
*END

*D_NET *58 0.00160724

*CONN
*I *381:B0 I *C 34.34 19.22 *L 0.000879 *D OAI21X2LVT
*I *364:Y O *C 29.75 21.135 *L 0 *D NAND2X2LVT

*CAP
1 *58:0 0.000417189
2 *58:1 0.000417189
3 *58:3 0.000386433
4 *58:4 0.000386433

*RES
1 *58:5 *364:Y 8.08
2 *58:4 *58:5 8.08
3 *58:3 *58:4 19.4737
4 *58:1 *58:3 8.08
5 *58:0 *381:B0 8.08
6 *58:0 *58:1 23.1891
*END

*D_NET *59 0.000479484

*CONN
*I *382:Y O *C 23.61 31.015 *L 0 *D CLKBUFX2LVT
*I *394:B I *C 21.7 31.065 *L 0.000876 *D NAND2X2LVT

*CAP
1 *59:0 3.07909e-06
2 *59:1 3.07909e-06
3 *59:3 0.000236663
4 *59:4 0.000236663

*RES
1 *59:5 *394:B 8
2 *59:4 *59:5 8
3 *59:3 *59:4 12.257
4 *59:1 *59:3 8
5 *59:0 *382:Y 8
6 *59:0 *59:1 0.163696
*END

*D_NET *60 0.000515295

*CONN
*I *383:Y O *C 21.13 29.11 *L 0 *D INVX3LVT
*I *384:B0 I *C 23.74 29.685 *L 0.00178 *D AOI21X4LVT

*CAP
1 *60:0 0.000123471
2 *60:1 0.000123471
3 *60:3 0.000134176
4 *60:4 0.000134176

*RES
1 *60:5 *384:B0 8
2 *60:4 *60:5 8
3 *60:3 *60:4 6.94912
4 *60:1 *60:3 8
5 *60:0 *383:Y 8
6 *60:0 *60:1 6.56422
*END

*D_NET *61 0.000591662

*CONN
*I *388:B I *C 20.43 9.005 *L 0.00178 *D NAND2X4LVT
*I *387:Y O *C 16.495 8.985 *L 0 *D NAND2X4LVT

*CAP
1 *61:0 5.934e-06
2 *61:1 5.934e-06
3 *61:3 0.000289897
4 *61:4 0.000289897

*RES
1 *61:5 *387:Y 8
2 *61:4 *61:5 8
3 *61:3 *61:4 17.5431
4 *61:1 *61:3 8
5 *61:0 *388:B 8
6 *61:0 *61:1 0.391281
*END

*D_NET *62 0.000332847

*CONN
*I *393:Y O *C 22.55 27.975 *L 0 *D NAND2X2LVT
*I *380:B I *C 18.84 27.83 *L 0.00179 *D CLKAND2X12LVT

*CAP
1 *62:0 1.23163e-06
2 *62:1 1.23163e-06
3 *62:3 0.000165192
4 *62:4 0.000165192

*RES
1 *62:5 *380:B 8
2 *62:4 *62:5 8
3 *62:3 *62:4 8.55544
4 *62:1 *62:3 8
5 *62:0 *393:Y 8
6 *62:0 *62:1 0.0654785
*END

*D_NET *63 0.00019116

*CONN
*I *393:B I *C 22.1 27.645 *L 0.000876 *D NAND2X2LVT
*I *392:Y O *C 24.95 28.92 *L 0 *D NAND2BX2LVT

*CAP
1 *63:0 3.72569e-05
2 *63:1 3.72569e-05
3 *63:3 5.83229e-05
4 *63:4 5.83229e-05

*RES
1 *63:5 *392:Y 8
2 *63:4 *63:5 8
3 *63:3 *63:4 3.0206
4 *63:1 *63:3 8
5 *63:0 *393:B 8
6 *63:0 *63:1 1.98072
*END

*D_NET *64 0.000476629

*CONN
*I *392:AN I *C 25.3 29.545 *L 0.000234 *D NAND2BX2LVT
*I *391:Y O *C 22.93 28.27 *L 0 *D INVX1LVT

*CAP
1 *64:0 7.85167e-05
2 *64:1 7.85167e-05
3 *64:3 0.000159798
4 *64:4 0.000159798

*RES
1 *64:5 *391:Y 8
2 *64:4 *64:5 8
3 *64:3 *64:4 8.27608
4 *64:1 *64:3 8
5 *64:0 *392:AN 8
6 *64:0 *64:1 4.17425
*END

*D_NET *65 0.000692183

*CONN
*I *390:Y O *C 27.565 25.5 *L 0 *D NAND2BX4LVT
*I *393:A I *C 22.41 27.84 *L 0.000884 *D NAND2X2LVT
*I *383:A I *C 20.5 29.735 *L 0.00133 *D INVX3LVT

*CAP
1 *65:0 0.000135172
2 *65:1 0.000135172
3 *65:3 8.2596e-05
4 *65:4 8.2596e-05
5 *65:5 0.000125627
6 *65:6 0.000125627
7 *65:8 2.69701e-06
8 *65:9 2.69701e-06

*RES
1 *65:10 *383:A 8
2 *65:9 *65:10 8
3 *65:8 *65:9 0.139681
4 *65:6 *65:8 8
5 *65:5 *393:A 8
6 *65:5 *65:6 6.6788
7 *65:4 *65:5 8
8 *65:3 *65:4 4.27772
9 *65:1 *65:3 8
10 *65:0 *390:Y 8
11 *65:0 *65:1 7.18626
*END

*D_NET *66 0.000319232

*CONN
*I *390:AN I *C 27.9 26.125 *L 0.000434 *D NAND2BX4LVT
*I *389:Y O *C 28.53 25.69 *L 0 *D INVX1LVT

*CAP
1 *66:0 2.6788e-05
2 *66:1 2.6788e-05
3 *66:3 0.000132828
4 *66:4 0.000132828

*RES
1 *66:5 *389:Y 8
2 *66:4 *66:5 8
3 *66:3 *66:4 6.87928
4 *66:1 *66:3 8
5 *66:0 *390:AN 8
6 *66:0 *66:1 1.42416
*END

*D_NET *67 0.00151661

*CONN
*I *396:A I *C 21.445 34.695 *L 0.00182 *D CLKAND2X12LVT
*I *395:Y O *C 23.05 33.3 *L 0 *D NOR2BX2LVT

*CAP
1 *67:0 0.000321628
2 *67:1 0.000321628
3 *67:3 0.000436676
4 *67:4 0.000436676

*RES
1 *67:5 *395:Y 8.64
2 *67:4 *67:5 8.64
3 *67:3 *67:4 28.711
4 *67:1 *67:3 8.64
5 *67:0 *396:A 8.64
6 *67:0 *67:1 17.0384
*END

*D_NET *68 0.00101169

*CONN
*I *397:Y O *C 13.365 28.13 *L 0 *D OAI21X1LVT
*I *540:A I *C 9.3 13.965 *L 0.000436 *D INVX1LVT

*CAP
1 *68:0 0.000279148
2 *68:1 0.000279148
3 *68:3 0.000226697
4 *68:4 0.000226697

*RES
1 *68:5 *540:A 8
2 *68:4 *68:5 8
3 *68:3 *68:4 13.2458
4 *68:1 *68:3 8
5 *68:0 *397:Y 8
6 *68:0 *68:1 18.3096
*END

*D_NET *69 0.000189474

*CONN
*I *399:Y O *C 28.555 24.46 *L 0 *D NAND2X1LVT
*I *400:B I *C 28.5 23.085 *L 0.000433 *D NAND2X1LVT

*CAP
1 *69:0 1.41638e-05
2 *69:1 1.41638e-05
3 *69:3 8.05732e-05
4 *69:4 8.05732e-05

*RES
1 *69:5 *400:B 8.4
2 *69:4 *69:5 8.4
3 *69:3 *69:4 4.38161
4 *69:1 *69:3 8.4
5 *69:0 *399:Y 8.4
6 *69:0 *69:1 0.790652
*END

*D_NET *70 0.000177373

*CONN
*I *403:A I *C 11.915 22.855 *L 0.000878 *D NOR3X2LVT
*I *402:Y O *C 12.52 22.245 *L 0 *D NAND2BX1LVT

*CAP
1 *70:0 3.0326e-05
2 *70:1 3.0326e-05
3 *70:3 5.83606e-05
4 *70:4 5.83606e-05

*RES
1 *70:5 *402:Y 8
2 *70:4 *70:5 8
3 *70:3 *70:4 3.40998
4 *70:1 *70:3 8
5 *70:0 *403:A 8
6 *70:0 *70:1 1.98911
*END

*D_NET *71 0.000405711

*CONN
*I *401:Y O *C 13.33 22.27 *L 0 *D INVX1LVT
*I *402:B I *C 12.3 22.895 *L 0.000433 *D NAND2BX1LVT

*CAP
1 *71:0 0.000201096
2 *71:1 0.000201096
3 *71:3 1.75962e-06
4 *71:4 1.75962e-06

*RES
1 *71:5 *402:B 8
2 *71:4 *71:5 8
3 *71:3 *71:4 0.102813
4 *71:1 *71:3 8
5 *71:0 *401:Y 8
6 *71:0 *71:1 13.1901
*END

*D_NET *72 6.80905e-05

*CONN
*I *404:Y O *C 17.33 22.375 *L 0 *D AND2XLLVT
*I *352:A I *C 17.5 24.225 *L 0.000436 *D INVX1LVT

*CAP
1 *72:0 3.20225e-05
2 *72:1 3.20225e-05
3 *72:3 2.02276e-06
4 *72:4 2.02276e-06

*RES
1 *72:5 *352:A 8
2 *72:4 *72:5 8
3 *72:3 *72:4 0.104761
4 *72:1 *72:3 8
5 *72:0 *404:Y 8
6 *72:0 *72:1 1.70244
*END

*D_NET *73 0.000101327

*CONN
*I *405:Y O *C 27.955 24.46 *L 0 *D NAND2X1LVT
*I *406:B I *C 27.1 24.035 *L 0.000433 *D NAND2X1LVT

*CAP
1 *73:0 2.0322e-05
2 *73:1 2.0322e-05
3 *73:3 3.03414e-05
4 *73:4 3.03414e-05

*RES
1 *73:5 *406:B 8.96
2 *73:4 *73:5 8.96
3 *73:3 *73:4 1.75998
4 *73:1 *73:3 8.96
5 *73:0 *405:Y 8.96
6 *73:0 *73:1 1.21004
*END

*D_NET *74 4.23531e-05

*CONN
*I *408:B I *C 9.14 27.9 *L 0.000881 *D NAND3X2LVT
*I *407:Y O *C 9.73 29.215 *L 0 *D AND2XLLVT

*CAP
1 *74:0 9.4458e-06
2 *74:1 9.4458e-06
3 *74:3 1.17308e-05
4 *74:4 1.17308e-05

*RES
1 *74:5 *407:Y 8
2 *74:4 *74:5 8
3 *74:3 *74:4 0.685422
4 *74:1 *74:3 8
5 *74:0 *408:B 8
6 *74:0 *74:1 0.619558
*END

*D_NET *75 0.000810419

*CONN
*I *471:B I *C 28.125 10.755 *L 0.00265 *D NAND2X6LVT
*I *409:Y O *C 24.15 16.065 *L 0 *D CLKBUFX6LVT
*I *410:A I *C 25.765 15.635 *L 0.000233 *D CLKBUFX2LVT
*I *489:A I *C 25.965 12.76 *L 0.000234 *D XOR2XLLVT

*CAP
1 *75:0 0.000168625
2 *75:1 0.000189888
3 *75:3 2.12635e-05
4 *75:4 9.65422e-05
5 *75:5 9.1853e-05
6 *75:6 0.000117781
7 *75:7 9.1853e-05
8 *75:9 2.12393e-05
9 *75:12 5.68675e-06
10 *75:14 5.68675e-06

*RES
1 *75:14 *489:A 8
2 *75:12 *75:14 0.374978
3 *75:10 *410:A 8
4 *75:9 *75:12 8
5 *75:8 *409:Y 8
6 *75:7 *75:10 8
7 *75:6 *75:9 1.28145
8 *75:6 *75:8 8
9 *75:5 *75:7 5.54184
10 *75:4 *75:6 5.82475
11 *75:3 *75:5 8
12 *75:1 *75:4 8
13 *75:1 *75:3 1.40209
14 *75:0 *471:B 8
15 *75:0 *75:1 11.1189
*END

*D_NET *76 0.00129073

*CONN
*I *593:A I *C 26.3 24.225 *L 0.000234 *D NAND2XLLVT
*I *432:A I *C 26.765 15.635 *L 0.000233 *D CLKBUFX2LVT
*I *410:Y O *C 25.41 16.105 *L 0 *D CLKBUFX2LVT

*CAP
1 *76:0 0.000573026
2 *76:1 0.000573026
3 *76:3 1.84809e-05
4 *76:4 1.84809e-05
5 *76:5 2.32415e-05
6 *76:7 2.32415e-05
7 *76:8 3.06177e-05
8 *76:9 3.06177e-05

*RES
1 *76:10 *410:Y 8
2 *76:9 *76:10 8
3 *76:8 *76:9 1.84728
4 *76:7 *76:8 8
5 *76:5 *76:7 1.53252
6 *76:5 *432:A 8
7 *76:4 *76:5 8
8 *76:3 *76:4 1.11502
9 *76:1 *76:3 8
10 *76:0 *593:A 8
11 *76:0 *76:1 32.1794
*END

*D_NET *77 2.0688e-05

*CONN
*I *411:Y O *C 36.14 17.475 *L 0 *D AND2X1LVT
*I *412:A I *C 36.615 15.89 *L 0.000879 *D NOR2X2LVT

*CAP
1 *77:0 4.58389e-06
2 *77:1 4.58389e-06
3 *77:3 5.7601e-06
4 *77:4 5.7601e-06

*RES
1 *77:5 *412:A 8
2 *77:4 *77:5 8
3 *77:3 *77:4 0.405788
4 *77:1 *77:3 8
5 *77:0 *411:Y 8
6 *77:0 *77:1 0.324609
*END

*D_NET *78 0.00176973

*CONN
*I *413:Y O *C 29.735 11.98 *L 0 *D BUFX2LVT
*I *429:A I *C 29.1 13.965 *L 0.000436 *D INVX1LVT
*I *590:A I *C 29.9 22.895 *L 0.000234 *D NAND2XLLVT
*I *499:A I *C 31.015 10.775 *L 0.000234 *D XNOR2X1LVT
*I *627:B0 I *C 29.365 12.405 *L 0.000884 *D AOI22X2LVT

*CAP
1 *78:0 0.000108403
2 *78:1 0.000108403
3 *78:3 0.000488491
4 *78:5 0.00041753
5 *78:6 7.09608e-05
6 *78:7 6.74253e-05
7 *78:8 9.46114e-05
8 *78:10 6.74253e-05
9 *78:11 9.46114e-05
10 *78:13 8.45595e-05
11 *78:15 1.13735e-05
12 *78:16 7.3186e-05
13 *78:17 4.13752e-05
14 *78:19 4.13752e-05

*RES
1 *78:20 *627:B0 8
2 *78:19 *78:20 8
3 *78:17 *78:19 2.49632
4 *78:16 *499:A 8
5 *78:15 *78:17 8
6 *78:13 *78:16 4.8258
7 *78:13 *78:15 0.749956
8 *78:12 *590:A 8
9 *78:11 *78:13 8
10 *78:10 *78:12 8
11 *78:8 *78:11 5.70826
12 *78:7 *78:10 3.49202
13 *78:6 *429:A 8
14 *78:6 *78:8 8
15 *78:5 *78:7 8
16 *78:3 *78:6 4.67907
17 *78:3 *78:5 23.2714
18 *78:2 *413:Y 8
19 *78:1 *78:3 8
20 *78:0 *78:2 8
21 *78:0 *78:1 6.54037
*END

*D_NET *79 0.000266187

*CONN
*I *414:Y O *C 16.935 14.62 *L 0 *D BUFX2LVT
*I *456:A I *C 16.3 13.965 *L 0.000436 *D INVX1LVT

*CAP
1 *79:0 3.23898e-05
2 *79:1 3.23898e-05
3 *79:3 0.000100704
4 *79:4 0.000100704

*RES
1 *79:5 *456:A 8
2 *79:4 *79:5 8
3 *79:3 *79:4 6.09586
4 *79:1 *79:3 8
5 *79:0 *414:Y 8
6 *79:0 *79:1 2.13574
*END

*D_NET *80 0.000644703

*CONN
*I *656:B0 I *C 19.9 16.055 *L 0.000233 *D OAI21XLLVT
*I *454:A I *C 18.61 10.74 *L 0.000884 *D NAND2X2LVT
*I *415:Y O *C 18.61 16.105 *L 0 *D CLKBUFX2LVT

*CAP
1 *80:0 0.000159476
2 *80:1 0.000256151
3 *80:3 3.91685e-05
4 *80:4 9.66748e-05
5 *80:5 3.91685e-05
6 *80:6 2.70318e-05
7 *80:8 2.70318e-05

*RES
1 *80:10 *415:Y 8
2 *80:8 *80:10 8
3 *80:7 *454:A 8
4 *80:6 *80:8 1.63093
5 *80:5 *80:7 8
6 *80:4 *80:6 8
7 *80:3 *80:5 2.36319
8 *80:1 *80:4 6.37463
9 *80:1 *80:3 8
10 *80:0 *656:B0 8
11 *80:0 *80:1 10.5157
*END

*D_NET *81 0.00197118

*CONN
*I *457:AN I *C 14.3 14.155 *L 0.000234 *D NOR2BX1LVT
*I *629:B0 I *C 20.965 12.405 *L 0.000884 *D AOI22X2LVT
*I *592:A I *C 16.9 24.415 *L 0.000436 *D NAND2X1LVT
*I *417:Y O *C 17.535 15.4 *L 0 *D BUFX2LVT
*I *458:B I *C 14.765 14.035 *L 0.000434 *D NOR2BX1LVT
*I *378:A I *C 18.7 24.225 *L 0.000593 *D CLKAND2X3LVT

*CAP
1 *81:0 0.000146493
2 *81:1 0.00031592
3 *81:2 0.000146493
4 *81:3 0.000412996
5 *81:4 8.66207e-05
6 *81:6 0.000183696
7 *81:7 4.48702e-05
8 *81:8 4.73393e-05
9 *81:11 0.000124325
10 *81:13 4.48702e-05
11 *81:14 4.73393e-05
12 *81:15 0.000124325
13 *81:17 5.9397e-06
14 *81:18 0.000117005
15 *81:20 5.9397e-06
16 *81:21 0.000117005

*RES
1 *81:21 *378:A 8
2 *81:20 *458:B 8
3 *81:18 *81:21 6.22045
4 *81:17 *81:20 0.389531
5 *81:16 *417:Y 8
6 *81:15 *81:18 8
7 *81:14 *81:17 8
8 *81:13 *81:16 8
9 *81:11 *81:15 6.90615
10 *81:8 *81:14 2.87058
11 *81:7 *81:13 2.62174
12 *81:6 *592:A 8
13 *81:6 *81:11 8
14 *81:5 *629:B0 8
15 *81:4 *457:AN 8
16 *81:4 *81:8 8
17 *81:3 *81:7 8
18 *81:3 *81:6 12.0488
19 *81:2 *81:5 8
20 *81:1 *81:4 5.68066
21 *81:1 *81:3 15.0385
22 *81:0 *81:2 8.85846
23 *81:0 *81:1 8
*END

*D_NET *82 0.000278053

*CONN
*I *387:B I *C 16.03 9.005 *L 0.00178 *D NAND2X4LVT
*I *373:A I *C 14.365 10.965 *L 0.000233 *D CLKBUFX2LVT
*I *418:Y O *C 15.93 11.17 *L 0 *D INVX3LVT

*CAP
1 *82:0 1.03945e-05
2 *82:1 2.05415e-05
3 *82:3 3.55728e-06
4 *82:4 1.0147e-05
5 *82:5 3.55728e-06
6 *82:6 0.000114928
7 *82:8 0.000114928

*RES
1 *82:10 *418:Y 8
2 *82:8 *82:10 8
3 *82:7 *373:A 8
4 *82:6 *82:8 6.96903
5 *82:5 *82:7 8
6 *82:4 *82:6 8
7 *82:3 *82:5 0.215708
8 *82:1 *82:4 0.665449
9 *82:1 *82:3 8
10 *82:0 *387:B 8
11 *82:0 *82:1 0.68168
*END

*D_NET *83 4.03964e-05

*CONN
*I *419:Y O *C 23.33 12.115 *L 0 *D AND2XLLVT
*I *420:AN I *C 22.5 12.445 *L 0.000234 *D NAND2BX1LVT

*CAP
1 *83:0 6.4285e-06
2 *83:1 6.4285e-06
3 *83:3 1.37697e-05
4 *83:4 1.37697e-05

*RES
1 *83:5 *420:AN 8
2 *83:4 *83:5 8
3 *83:3 *83:4 0.798823
4 *83:1 *83:3 8
5 *83:0 *419:Y 8
6 *83:0 *83:1 0.407585
*END

*D_NET *84 0.000382063

*CONN
*I *421:Y O *C 25.335 18.82 *L 0 *D BUFX2LVT
*I *447:B I *C 24.5 19.475 *L 0.000876 *D NAND2X2LVT

*CAP
1 *84:0 4.0336e-05
2 *84:1 4.0336e-05
3 *84:3 0.000150696
4 *84:4 0.000150696

*RES
1 *84:5 *447:B 8
2 *84:4 *84:5 8
3 *84:3 *84:4 7.80466
4 *84:1 *84:3 8
5 *84:0 *421:Y 8
6 *84:0 *84:1 2.14442
*END

*D_NET *85 0.000466766

*CONN
*I *422:Y O *C 16.335 11.2 *L 0 *D BUFX2LVT
*I *460:A I *C 17.5 10.545 *L 0.000436 *D INVX1LVT
*I *455:A I *C 18.74 9.165 *L 0.00179 *D NAND2X4LVT

*CAP
1 *85:0 5.21698e-05
2 *85:1 5.46423e-05
3 *85:3 2.4725e-06
4 *85:4 1.29642e-05
5 *85:5 0.000165777
6 *85:6 1.29642e-05
7 *85:7 0.000165777

*RES
1 *85:9 *455:A 8
2 *85:8 *460:A 8
3 *85:7 *85:9 8
4 *85:6 *85:8 8
5 *85:5 *85:7 10.0019
6 *85:4 *85:6 0.782181
7 *85:3 *85:5 8
8 *85:1 *85:4 8
9 *85:1 *85:3 0.163034
10 *85:0 *422:Y 8
11 *85:0 *85:1 3.44002
*END

*D_NET *86 0.000155842

*CONN
*I *423:Y O *C 29.41 16.105 *L 0 *D CLKBUFX2LVT
*I *478:B I *C 28.5 16.055 *L 0.000876 *D NAND2X2LVT

*CAP
1 *86:0 3.07909e-06
2 *86:1 3.07909e-06
3 *86:3 7.48421e-05
4 *86:4 7.48421e-05

*RES
1 *86:5 *478:B 8
2 *86:4 *86:5 8
3 *86:3 *86:4 3.87614
4 *86:1 *86:3 8
5 *86:0 *423:Y 8
6 *86:0 *86:1 0.163696
*END

*D_NET *87 0.000898727

*CONN
*I *426:Y O *C 34.93 17.795 *L 0 *D AOI21X4LVT
*I *381:A0 I *C 33.74 19.22 *L 0.000882 *D OAI21X2LVT

*CAP
1 *87:0 0.000101524
2 *87:1 0.000101524
3 *87:3 0.00034784
4 *87:4 0.00034784

*RES
1 *87:5 *381:A0 8.48
2 *87:4 *87:5 8.48
3 *87:3 *87:4 18.7329
4 *87:1 *87:3 8.48
5 *87:0 *426:Y 8.48
6 *87:0 *87:1 6.88254
*END

*D_NET *88 0.000557612

*CONN
*I *425:Y O *C 37.13 19.065 *L 0 *D AOI21X4LVT
*I *381:A1 I *C 33.5 19.1 *L 0.000882 *D OAI21X2LVT

*CAP
1 *88:0 0.000106048
2 *88:1 0.000106048
3 *88:3 0.000172758
4 *88:4 0.000172758

*RES
1 *88:5 *381:A1 8.48
2 *88:4 *88:5 8.48
3 *88:3 *88:4 9.28337
4 *88:1 *88:3 8.48
5 *88:0 *425:Y 8.48
6 *88:0 *88:1 7.1102
*END

*D_NET *89 0.000295892

*CONN
*I *425:A0 I *C 36.34 19.22 *L 0.00179 *D AOI21X4LVT
*I *424:Y O *C 38.155 19.24 *L 0 *D NAND2X1LVT

*CAP
1 *89:0 7.1747e-05
2 *89:1 7.1747e-05
3 *89:3 7.61992e-05
4 *89:4 7.61992e-05

*RES
1 *89:5 *424:Y 8.48
2 *89:4 *89:5 8.48
3 *89:3 *89:4 5.47132
4 *89:1 *89:3 8.48
5 *89:0 *425:A0 8.48
6 *89:0 *89:1 5.17849
*END

*D_NET *90 0.00305779

*CONN
*I *405:B I *C 27.7 24.035 *L 0.000433 *D NAND2X1LVT
*I *399:B I *C 28.3 24.035 *L 0.000433 *D NAND2X1LVT
*I *567:A1N I *C 30.5 24.225 *L 0.000233 *D OAI2BB1X1LVT
*I *357:B I *C 23.9 27.455 *L 0.000433 *D NAND2X1LVT
*I *565:A1N I *C 31.5 24.225 *L 0.000233 *D OAI2BB1X1LVT
*I *566:A1N I *C 32.5 24.225 *L 0.000233 *D OAI2BB1X1LVT
*I *360:Y O *C 11.94 28.42 *L 0 *D BUFX3LVT

*CAP
1 *90:0 4.04552e-05
2 *90:1 0.00022231
3 *90:2 0.000188791
4 *90:3 0.00022231
5 *90:5 0.000148336
6 *90:7 0.000202276
7 *90:8 1.17005e-05
8 *90:10 0.000202276
9 *90:11 1.17005e-05
10 *90:12 4.77258e-05
11 *90:13 6.74253e-05
12 *90:15 4.77258e-05
13 *90:17 0.000134851
14 *90:18 0.00072124
15 *90:19 6.74253e-05
16 *90:21 0.00072124

*RES
1 *90:24 *360:Y 9.84
2 *90:22 *566:A1N 9.84
3 *90:21 *90:24 9.84
4 *90:20 *565:A1N 9.84
5 *90:19 *90:22 9.84
6 *90:18 *90:21 47.65
7 *90:17 *90:20 9.84
8 *90:17 *90:19 4.29518
9 *90:15 *90:18 9.84
10 *90:13 *90:17 4.29518
11 *90:12 *357:B 9.84
12 *90:12 *90:15 3.12087
13 *90:11 *567:A1N 9.84
14 *90:11 *90:13 9.84
15 *90:10 *90:12 9.84
16 *90:8 *90:11 0.765116
17 *90:7 *90:10 12.8855
18 *90:6 *399:B 9.84
19 *90:5 *90:8 9.84
20 *90:3 *90:7 9.84
21 *90:2 *90:6 9.84
22 *90:2 *90:5 9.4494
23 *90:1 *405:B 9.84
24 *90:1 *90:3 14.5372
25 *90:0 *90:2 2.57711
26 *90:0 *90:1 9.84
*END

*D_NET *91 0.000150289

*CONN
*I *359:A I *C 23.7 19.475 *L 0.000436 *D INVX1LVT
*I *427:Y O *C 23.55 19.145 *L 0 *D NAND2X2LVT

*CAP
1 *91:0 2.15413e-05
2 *91:1 2.15413e-05
3 *91:3 5.36031e-05
4 *91:4 5.36031e-05

*RES
1 *91:5 *427:Y 8
2 *91:4 *91:5 8
3 *91:3 *91:4 2.61901
4 *91:1 *91:3 8
5 *91:0 *359:A 8
6 *91:0 *91:1 1.08039
*END

*D_NET *92 0.000247932

*CONN
*I *428:AN I *C 23.3 17.575 *L 0.000234 *D NAND2BX1LVT
*I *359:Y O *C 23.93 18.85 *L 0 *D INVX1LVT

*CAP
1 *92:0 8.32277e-05
2 *92:1 8.32277e-05
3 *92:3 4.07384e-05
4 *92:4 4.07384e-05

*RES
1 *92:5 *359:Y 8
2 *92:4 *92:5 8
3 *92:3 *92:4 1.99045
4 *92:1 *92:3 8
5 *92:0 *428:AN 8
6 *92:0 *92:1 4.17425
*END

*D_NET *93 0.000131442

*CONN
*I *430:Y O *C 28.52 13.825 *L 0 *D NOR2BX1LVT
*I *362:A I *C 26.9 13.965 *L 0.000436 *D INVX1LVT

*CAP
1 *93:0 7.19992e-06
2 *93:1 7.19992e-06
3 *93:3 5.85211e-05
4 *93:4 5.85211e-05

*RES
1 *93:5 *362:A 8
2 *93:4 *93:5 8
3 *93:3 *93:4 3.395
4 *93:1 *93:3 8
5 *93:0 *430:Y 8
6 *93:0 *93:1 0.456495
*END

*D_NET *94 0.000550566

*CONN
*I *430:B I *C 28.565 14.035 *L 0.000434 *D NOR2BX1LVT
*I *429:Y O *C 29.33 14.59 *L 0 *D INVX1LVT

*CAP
1 *94:0 0.000204426
2 *94:1 0.000204426
3 *94:3 7.08565e-05
4 *94:4 7.08565e-05

*RES
1 *94:5 *429:Y 8
2 *94:4 *94:5 8
3 *94:3 *94:4 4.11061
4 *94:1 *94:3 8
5 *94:0 *430:B 8
6 *94:0 *94:1 12.9612
*END

*D_NET *95 0.000665578

*CONN
*I *521:A I *C 30.5 20.805 *L 0.000436 *D INVX1LVT
*I *431:Y O *C 29.21 22.945 *L 0 *D CLKBUFX2LVT

*CAP
1 *95:0 3.07909e-06
2 *95:1 3.07909e-06
3 *95:3 0.00032971
4 *95:4 0.00032971

*RES
1 *95:5 *431:Y 8
2 *95:4 *95:5 8
3 *95:3 *95:4 17.076
4 *95:1 *95:3 8
5 *95:0 *521:A 8
6 *95:0 *95:1 0.163696
*END

*D_NET *96 5.47238e-05

*CONN
*I *432:Y O *C 26.41 16.105 *L 0 *D CLKBUFX2LVT
*I *628:B0 I *C 26.555 14.005 *L 0.00179 *D AOI22X4LVT

*CAP
1 *96:0 1.3846e-05
2 *96:1 1.3846e-05
3 *96:3 1.35159e-05
4 *96:4 1.35159e-05

*RES
1 *96:5 *628:B0 8
2 *96:4 *96:5 8
3 *96:3 *96:4 0.815466
4 *96:1 *96:3 8
5 *96:0 *432:Y 8
6 *96:0 *96:1 0.91299
*END

*D_NET *97 7.75465e-05

*CONN
*I *435:AN I *C 31.9 12.445 *L 0.000234 *D NAND2BX1LVT
*I *434:Y O *C 30.72 12.775 *L 0 *D NOR2BX1LVT

*CAP
1 *97:0 1.69712e-05
2 *97:1 1.69712e-05
3 *97:3 2.1802e-05
4 *97:4 2.1802e-05

*RES
1 *97:5 *434:Y 8
2 *97:4 *97:5 8
3 *97:3 *97:4 1.2648
4 *97:1 *97:3 8
5 *97:0 *435:AN 8
6 *97:0 *97:1 1.07602
*END

*D_NET *98 0.000208316

*CONN
*I *433:Y O *C 32.33 12.01 *L 0 *D INVX1LVT
*I *434:B I *C 30.765 12.565 *L 0.000434 *D NOR2BX1LVT

*CAP
1 *98:0 7.17421e-05
2 *98:1 7.17421e-05
3 *98:3 3.24161e-05
4 *98:4 3.24161e-05

*RES
1 *98:5 *434:B 8
2 *98:4 *98:5 8
3 *98:3 *98:4 1.88056
4 *98:1 *98:3 8
5 *98:0 *433:Y 8
6 *98:0 *98:1 4.54865
*END

*D_NET *99 0.000402127

*CONN
*I *436:Y O *C 23.495 10.775 *L 0 *D NAND2X4LVT
*I *388:A I *C 20.74 9.165 *L 0.00179 *D NAND2X4LVT

*CAP
1 *99:0 4.945e-06
2 *99:1 4.945e-06
3 *99:3 0.000196119
4 *99:4 0.000196119

*RES
1 *99:5 *388:A 8
2 *99:4 *99:5 8
3 *99:3 *99:4 11.8326
4 *99:1 *99:3 8
5 *99:0 *436:Y 8
6 *99:0 *99:1 0.326068
*END

*D_NET *100 0.000389201

*CONN
*I *437:Y O *C 20.125 31.485 *L 0 *D OR2XLLVT
*I *438:A I *C 20.1 29.735 *L 0.000436 *D INVX1LVT

*CAP
1 *100:0 0.000109308
2 *100:1 0.000109308
3 *100:3 8.5293e-05
4 *100:4 8.5293e-05

*RES
1 *100:5 *438:A 8
2 *100:4 *100:5 8
3 *100:3 *100:4 4.4174
4 *100:1 *100:3 8
5 *100:0 *437:Y 8
6 *100:0 *100:1 5.81121
*END

*D_NET *101 0.000980355

*CONN
*I *380:A I *C 19.245 27.855 *L 0.00182 *D CLKAND2X12LVT
*I *438:Y O *C 20.33 29.11 *L 0 *D INVX1LVT

*CAP
1 *101:0 7.82088e-05
2 *101:1 7.82088e-05
3 *101:3 0.000411969
4 *101:4 0.000411969

*RES
1 *101:5 *438:Y 8
2 *101:4 *101:5 8
3 *101:3 *101:4 21.3362
4 *101:1 *101:3 8
5 *101:0 *380:A 8
6 *101:0 *101:1 4.15788
*END

*D_NET *102 8.47209e-05

*CONN
*I *371:A I *C 31.3 16.055 *L 0.000436 *D INVX1LVT
*I *440:Y O *C 30.32 16.195 *L 0 *D NOR2BX1LVT

*CAP
1 *102:0 6.41744e-06
2 *102:1 6.41744e-06
3 *102:3 3.5943e-05
4 *102:4 3.5943e-05

*RES
1 *102:5 *440:Y 8
2 *102:4 *102:5 8
3 *102:3 *102:4 2.53212
4 *102:1 *102:3 8
5 *102:0 *371:A 8
6 *102:0 *102:1 0.454453
*END

*D_NET *103 0.000227562

*CONN
*I *439:Y O *C 31.13 15.43 *L 0 *D INVX1LVT
*I *440:B I *C 30.365 15.985 *L 0.000434 *D NOR2BX1LVT

*CAP
1 *103:0 2.74448e-05
2 *103:1 2.74448e-05
3 *103:3 8.63363e-05
4 *103:4 8.63363e-05

*RES
1 *103:5 *440:B 8
2 *103:4 *103:5 8
3 *103:3 *103:4 5.20899
4 *103:1 *103:3 8
5 *103:0 *439:Y 8
6 *103:0 *103:1 1.80968
*END

*D_NET *104 0.000325757

*CONN
*I *441:Y O *C 36.61 9.265 *L 0 *D CLKBUFX2LVT
*I *513:A1 I *C 35.04 10.76 *L 0.000435 *D OAI21X1LVT

*CAP
1 *104:0 9.05318e-05
2 *104:1 9.05318e-05
3 *104:3 7.23468e-05
4 *104:4 7.23468e-05

*RES
1 *104:5 *513:A1 8
2 *104:4 *104:5 8
3 *104:3 *104:4 5.0967
4 *104:1 *104:3 8
5 *104:0 *441:Y 8
6 *104:0 *104:1 6.41104
*END

*D_NET *105 0.000167417

*CONN
*I *483:B I *C 37.9 13.775 *L 0.000433 *D NAND2X1LVT
*I *442:Y O *C 38.535 14.62 *L 0 *D BUFX2LVT

*CAP
1 *105:0 3.00245e-05
2 *105:1 3.00245e-05
3 *105:3 5.36841e-05
4 *105:4 5.36841e-05

*RES
1 *105:5 *442:Y 8
2 *105:4 *105:5 8
3 *105:3 *105:4 3.78195
4 *105:1 *105:3 8
5 *105:0 *483:B 8
6 *105:0 *105:1 2.12619
*END

*D_NET *106 0.000173868

*CONN
*I *443:Y O *C 37.135 11.2 *L 0 *D BUFX2LVT
*I *511:B I *C 35.9 10.545 *L 0.000433 *D NAND2BX1LVT

*CAP
1 *106:0 3.00245e-05
2 *106:1 3.00245e-05
3 *106:3 5.69097e-05
4 *106:4 5.69097e-05

*RES
1 *106:5 *511:B 8
2 *106:4 *106:5 8
3 *106:3 *106:4 4.00919
4 *106:1 *106:3 8
5 *106:0 *443:Y 8
6 *106:0 *106:1 2.12619
*END

*D_NET *107 3.42206e-05

*CONN
*I *444:Y O *C 26.13 24.85 *L 0 *D INVX1LVT
*I *389:A I *C 28.3 26.315 *L 0.000436 *D INVX1LVT

*CAP
1 *107:0 1.50875e-05
2 *107:1 1.50875e-05
3 *107:3 2.02276e-06
4 *107:4 2.02276e-06

*RES
1 *107:5 *389:A 8
2 *107:4 *107:5 8
3 *107:3 *107:4 0.104761
4 *107:1 *107:3 8
5 *107:0 *444:Y 8
6 *107:0 *107:1 0.802111
*END

*D_NET *108 0.000252517

*CONN
*I *450:Y O *C 28.165 21.62 *L 0 *D NAND2BX4LVT
*I *451:B I *C 26.83 22.685 *L 0.00178 *D NAND2X4LVT

*CAP
1 *108:0 3.72569e-05
2 *108:1 3.72569e-05
3 *108:3 8.90014e-05
4 *108:4 8.90014e-05

*RES
1 *108:5 *451:B 8
2 *108:4 *108:5 8
3 *108:3 *108:4 4.60946
4 *108:1 *108:3 8
5 *108:0 *450:Y 8
6 *108:0 *108:1 1.98072
*END

*D_NET *109 0.000368749

*CONN
*I *450:AN I *C 28.5 20.995 *L 0.000434 *D NAND2BX4LVT
*I *449:Y O *C 26.53 21.43 *L 0 *D INVX1LVT

*CAP
1 *109:0 7.85167e-05
2 *109:1 7.85167e-05
3 *109:3 0.000105858
4 *109:4 0.000105858

*RES
1 *109:5 *449:Y 8
2 *109:4 *109:5 8
3 *109:3 *109:4 5.48247
4 *109:1 *109:3 8
5 *109:0 *450:AN 8
6 *109:0 *109:1 4.17425
*END

*D_NET *110 0.000287928

*CONN
*I *451:A I *C 27.14 22.845 *L 0.00179 *D NAND2X4LVT
*I *448:Y O *C 25.53 22.27 *L 0 *D INVX1LVT

*CAP
1 *110:0 3.54095e-05
2 *110:1 3.54095e-05
3 *110:3 0.000108555
4 *110:4 0.000108555

*RES
1 *110:5 *448:Y 8
2 *110:4 *110:5 8
3 *110:3 *110:4 5.62215
4 *110:1 *110:3 8
5 *110:0 *451:A 8
6 *110:0 *110:1 1.88251
*END

*D_NET *111 0.000814475

*CONN
*I *453:B I *C 27.085 8.91 *L 0.00178 *D NOR2X4LVT
*I *452:Y O *C 21.33 10.955 *L 0 *D AOI21X4LVT

*CAP
1 *111:0 8.97518e-05
2 *111:1 8.97518e-05
3 *111:3 0.000317486
4 *111:4 0.000317486

*RES
1 *111:5 *452:Y 8
2 *111:4 *111:5 8
3 *111:3 *111:4 19.1551
4 *111:1 *111:3 8
5 *111:0 *453:B 8
6 *111:0 *111:1 5.91813
*END

*D_NET *112 0.000406929

*CONN
*I *452:B0 I *C 21.34 10.595 *L 0.00178 *D AOI21X4LVT
*I *388:Y O *C 20.895 8.985 *L 0 *D NAND2X4LVT

*CAP
1 *112:0 7.96145e-05
2 *112:1 7.96145e-05
3 *112:3 0.00012385
4 *112:4 0.00012385

*RES
1 *112:5 *388:Y 8
2 *112:4 *112:5 8
3 *112:3 *112:4 7.47233
4 *112:1 *112:3 8
5 *112:0 *452:B0 8
6 *112:0 *112:1 5.24969
*END

*D_NET *113 0.00088845

*CONN
*I *454:B I *C 18.3 10.545 *L 0.000876 *D NAND2X2LVT
*I *461:A I *C 17.1 10.545 *L 0.000436 *D INVX1LVT
*I *386:Y O *C 15.155 10.78 *L 0 *D NAND2X1LVT

*CAP
1 *113:0 8.45595e-05
2 *113:1 8.45595e-05
3 *113:3 3.31002e-05
4 *113:4 3.31002e-05
5 *113:5 7.73893e-05
6 *113:7 7.73893e-05
7 *113:8 0.000249176
8 *113:9 0.000249176

*RES
1 *113:10 *386:Y 8
2 *113:9 *113:10 8
3 *113:8 *113:9 15.0928
4 *113:7 *113:8 8
5 *113:5 *113:7 5.10296
6 *113:5 *461:A 8
7 *113:4 *113:5 8
8 *113:3 *113:4 1.99706
9 *113:1 *113:3 8
10 *113:0 *454:B 8
11 *113:0 *113:1 5.57576
*END

*D_NET *114 0.000409286

*CONN
*I *422:A I *C 16.7 10.735 *L 0.000233 *D BUFX2LVT
*I *452:A0 I *C 20.54 10.8 *L 0.00179 *D AOI21X4LVT
*I *466:Y O *C 16.35 12.305 *L 0 *D NAND2X2LVT

*CAP
1 *114:0 3.21425e-06
2 *114:1 6.923e-06
3 *114:3 3.70875e-06
4 *114:4 7.94404e-05
5 *114:5 0.000118279
6 *114:6 7.94404e-05
7 *114:7 0.000118279

*RES
1 *114:9 *466:Y 8
2 *114:8 *452:A0 8
3 *114:7 *114:9 8
4 *114:6 *114:8 8
5 *114:5 *114:7 7.14874
6 *114:4 *114:6 4.79294
7 *114:3 *114:5 8
8 *114:1 *114:4 8
9 *114:1 *114:3 0.244551
10 *114:0 *422:A 8
11 *114:0 *114:1 0.211944
*END

*D_NET *115 0.000349548

*CONN
*I *465:Y O *C 21.73 12.01 *L 0 *D INVX3LVT
*I *452:A1 I *C 19.7 10.735 *L 0.00179 *D AOI21X4LVT

*CAP
1 *115:0 6.30488e-05
2 *115:1 6.30488e-05
3 *115:3 0.000111725
4 *115:4 0.000111725

*RES
1 *115:5 *452:A1 8
2 *115:4 *115:5 8
3 *115:3 *115:4 6.75081
4 *115:1 *115:3 8
5 *115:0 *465:Y 8
6 *115:0 *115:1 4.15736
*END

*D_NET *116 0.000331815

*CONN
*I *463:Y O *C 18.73 12.01 *L 0 *D INVX1LVT
*I *464:A0 I *C 17.625 12.58 *L 0.000436 *D OAI21X1LVT

*CAP
1 *116:0 2.81865e-05
2 *116:1 2.81865e-05
3 *116:3 0.000137721
4 *116:4 0.000137721

*RES
1 *116:5 *464:A0 8
2 *116:4 *116:5 8
3 *116:3 *116:4 8.32714
4 *116:1 *116:3 8
5 *116:0 *463:Y 8
6 *116:0 *116:1 1.85859
*END

*D_NET *117 0.000363725

*CONN
*I *464:A1 I *C 17.84 12.42 *L 0.000435 *D OAI21X1LVT
*I *462:Y O *C 17.355 12.35 *L 0 *D NOR2X2LVT

*CAP
1 *117:0 7.87011e-05
2 *117:1 7.87011e-05
3 *117:3 0.000103161
4 *117:4 0.000103161

*RES
1 *117:5 *462:Y 8
2 *117:4 *117:5 8
3 *117:3 *117:4 6.25554
4 *117:1 *117:3 8
5 *117:0 *464:A1 8
6 *117:0 *117:1 5.16129
*END

*D_NET *118 4.3541e-05

*CONN
*I *462:B I *C 16.965 12.19 *L 0.000878 *D NOR2X2LVT
*I *461:Y O *C 17.33 11.17 *L 0 *D INVX1LVT

*CAP
1 *118:0 8.90955e-06
2 *118:1 8.90955e-06
3 *118:3 1.2861e-05
4 *118:4 1.2861e-05

*RES
1 *118:5 *461:Y 8
2 *118:4 *118:5 8
3 *118:3 *118:4 0.779868
4 *118:1 *118:3 8
5 *118:0 *462:B 8
6 *118:0 *118:1 0.584297
*END

*D_NET *119 9.86234e-05

*CONN
*I *462:A I *C 17.215 12.47 *L 0.000879 *D NOR2X2LVT
*I *460:Y O *C 17.73 11.17 *L 0 *D INVX1LVT

*CAP
1 *119:0 2.27689e-05
2 *119:1 2.27689e-05
3 *119:3 2.65428e-05
4 *119:4 2.65428e-05

*RES
1 *119:5 *460:Y 8
2 *119:4 *119:5 8
3 *119:3 *119:4 1.60952
4 *119:1 *119:3 8
5 *119:0 *462:A 8
6 *119:0 *119:1 1.4932
*END

*D_NET *120 0.000235492

*CONN
*I *464:B0 I *C 17.995 12.27 *L 0.000433 *D OAI21X1LVT
*I *459:Y O *C 15.965 14.45 *L 0 *D OAI21X1LVT

*CAP
1 *120:0 6.13769e-05
2 *120:1 6.13769e-05
3 *120:3 5.63693e-05
4 *120:4 5.63693e-05

*RES
1 *120:5 *459:Y 8
2 *120:4 *120:5 8
3 *120:3 *120:4 3.41815
4 *120:1 *120:3 8
5 *120:0 *464:B0 8
6 *120:0 *120:1 4.02516
*END

*D_NET *121 0.000140252

*CONN
*I *459:A0 I *C 15.425 14.02 *L 0.000436 *D OAI21X1LVT
*I *458:Y O *C 14.72 13.825 *L 0 *D NOR2BX1LVT

*CAP
1 *121:0 9.65202e-06
2 *121:1 9.65202e-06
3 *121:3 6.04738e-05
4 *121:4 6.04738e-05

*RES
1 *121:5 *458:Y 8
2 *121:4 *121:5 8
3 *121:3 *121:4 3.66704
4 *121:1 *121:3 8
5 *121:0 *459:A0 8
6 *121:0 *121:1 0.632988
*END

*D_NET *122 0.000179624

*CONN
*I *459:A1 I *C 15.64 14.18 *L 0.000435 *D OAI21X1LVT
*I *457:Y O *C 13.92 13.825 *L 0 *D NOR2BX1LVT

*CAP
1 *122:0 1.75716e-05
2 *122:1 1.75716e-05
3 *122:3 7.22402e-05
4 *122:4 7.22402e-05

*RES
1 *122:5 *457:Y 8
2 *122:4 *122:5 8
3 *122:3 *122:4 4.38054
4 *122:1 *122:3 8
5 *122:0 *459:A1 8
6 *122:0 *122:1 1.15236
*END

*D_NET *123 0.000475079

*CONN
*I *456:Y O *C 16.53 14.59 *L 0 *D INVX1LVT
*I *459:B0 I *C 15.795 14.33 *L 0.000433 *D OAI21X1LVT

*CAP
1 *123:0 5.4395e-05
2 *123:1 5.4395e-05
3 *123:3 0.000183145
4 *123:4 0.000183145

*RES
1 *123:5 *459:B0 8
2 *123:4 *123:5 8
3 *123:3 *123:4 11.0816
4 *123:1 *123:3 8
5 *123:0 *456:Y 8
6 *123:0 *123:1 3.58675
*END

*D_NET *124 0.00016155

*CONN
*I *454:Y O *C 18.75 10.875 *L 0 *D NAND2X2LVT
*I *455:B I *C 18.43 9.005 *L 0.00178 *D NAND2X4LVT

*CAP
1 *124:0 7.912e-05
2 *124:1 7.912e-05
3 *124:3 1.65501e-06
4 *124:4 1.65501e-06

*RES
1 *124:5 *455:B 8
2 *124:4 *124:5 8
3 *124:3 *124:4 0.0998529
4 *124:1 *124:3 8
5 *124:0 *454:Y 8
6 *124:0 *124:1 5.21708
*END

*D_NET *125 0.00015827

*CONN
*I *444:A I *C 25.9 24.225 *L 0.000436 *D INVX1LVT
*I *468:Y O *C 25.32 24.875 *L 0 *D NAND2BX1LVT

*CAP
1 *125:0 4.00281e-05
2 *125:1 4.00281e-05
3 *125:3 3.91067e-05
4 *125:4 3.91067e-05

*RES
1 *125:5 *468:Y 8
2 *125:4 *125:5 8
3 *125:3 *125:4 2.02537
4 *125:1 *125:3 8
5 *125:0 *444:A 8
6 *125:0 *125:1 2.12805
*END

*D_NET *126 0.000785472

*CONN
*I *473:A1 I *C 34.665 8.97 *L 0.00179 *D OAI21X4LVT
*I *453:Y O *C 27.54 8.885 *L 0 *D NOR2X4LVT

*CAP
1 *126:0 3.8963e-06
2 *126:1 3.8963e-06
3 *126:3 0.00038884
4 *126:4 0.00038884

*RES
1 *126:5 *453:Y 8
2 *126:4 *126:5 8
3 *126:3 *126:4 23.6769
4 *126:1 *126:3 8
5 *126:0 *473:A1 8
6 *126:0 *126:1 0.275918
*END

*D_NET *127 0.000256777

*CONN
*I *446:Y O *C 24.355 10.78 *L 0 *D NAND2X1LVT
*I *470:B0 I *C 23.565 8.985 *L 0.00178 *D OAI21X4LVT

*CAP
1 *127:0 8.48068e-05
2 *127:1 8.48068e-05
3 *127:3 4.35819e-05
4 *127:4 4.35819e-05

*RES
1 *127:5 *470:B0 8
2 *127:4 *127:5 8
3 *127:3 *127:4 2.62946
4 *127:1 *127:3 8
5 *127:0 *446:Y 8
6 *127:0 *127:1 5.59206
*END

*D_NET *128 0.000323392

*CONN
*I *436:B I *C 23.03 10.755 *L 0.00178 *D NAND2X4LVT
*I *446:A I *C 23.9 10.735 *L 0.000436 *D NAND2X1LVT
*I *416:Y O *C 24.955 11.93 *L 0 *D INVX6LVT

*CAP
1 *128:0 8.35705e-05
2 *128:1 0.000142663
3 *128:3 5.90928e-05
4 *128:4 3.86169e-06
5 *128:5 1.51709e-05
6 *128:6 3.86169e-06
7 *128:7 1.51709e-05

*RES
1 *128:9 *416:Y 8
2 *128:8 *446:A 8
3 *128:7 *128:9 8
4 *128:6 *128:8 8
5 *128:5 *128:7 0.915319
6 *128:4 *128:6 0.23299
7 *128:3 *128:5 8
8 *128:1 *128:4 8
9 *128:1 *128:3 3.89651
10 *128:0 *436:B 8
11 *128:0 *128:1 5.51055
*END

*D_NET *129 0.000227222

*CONN
*I *453:A I *C 27.395 9.03 *L 0.00179 *D NOR2X4LVT
*I *472:Y O *C 25.73 8.59 *L 0 *D INVX3LVT

*CAP
1 *129:0 2.1758e-05
2 *129:1 2.1758e-05
3 *129:3 9.1853e-05
4 *129:4 9.1853e-05

*RES
1 *129:5 *472:Y 8
2 *129:4 *129:5 8
3 *129:3 *129:4 5.54184
4 *129:1 *129:3 8
5 *129:0 *453:A 8
6 *129:0 *129:1 1.4347
*END

*D_NET *130 0.000638107

*CONN
*I *469:A I *C 24.7 9.215 *L 0.000436 *D INVX1LVT
*I *472:A I *C 25.1 9.215 *L 0.00133 *D INVX3LVT
*I *471:Y O *C 28.61 10.925 *L 0 *D NAND2X6LVT

*CAP
1 *130:0 2.20668e-05
2 *130:1 0.000215703
3 *130:3 0.000193636
4 *130:6 0.000103351
5 *130:8 0.000103351

*RES
1 *130:8 *471:Y 8
2 *130:6 *130:8 6.81482
3 *130:4 *472:A 8
4 *130:3 *130:6 8
5 *130:2 *469:A 8
6 *130:1 *130:4 8
7 *130:1 *130:3 11.6828
8 *130:0 *130:2 8
9 *130:0 *130:1 1.33137
*END

*D_NET *131 0.000309555

*CONN
*I *469:Y O *C 24.93 8.59 *L 0 *D INVX1LVT
*I *470:A1 I *C 22.465 8.97 *L 0.00179 *D OAI21X4LVT

*CAP
1 *131:0 1.8791e-05
2 *131:1 1.8791e-05
3 *131:3 0.000135987
4 *131:4 0.000135987

*RES
1 *131:5 *470:A1 8
2 *131:4 *131:5 8
3 *131:3 *131:4 8.20458
4 *131:1 *131:3 8
5 *131:0 *469:Y 8
6 *131:0 *131:1 1.23906
*END

*D_NET *132 0.000467383

*CONN
*I *390:B I *C 26.8525 26.015 *L 0.00178 *D NAND2BX4LVT
*I *467:B I *C 24.23 24.435 *L 0.00178 *D NAND2X4LVT
*I *451:Y O *C 27.295 22.665 *L 0 *D NAND2X4LVT

*CAP
1 *132:0 1.23163e-05
2 *132:1 1.3548e-05
3 *132:3 1.23163e-06
4 *132:4 0.000182723
5 *132:5 3.7421e-05
6 *132:6 0.000182723
7 *132:7 3.7421e-05

*RES
1 *132:9 *451:Y 8
2 *132:8 *467:B 8
3 *132:7 *132:9 8
4 *132:6 *132:8 8
5 *132:5 *132:7 1.93807
6 *132:4 *132:6 9.46337
7 *132:3 *132:5 8
8 *132:1 *132:4 8
9 *132:1 *132:3 0.0654785
10 *132:0 *390:B 8
11 *132:0 *132:1 0.654785
*END

*D_NET *133 0.000328658

*CONN
*I *474:Y O *C 25.13 22.27 *L 0 *D INVX1LVT
*I *448:A I *C 25.3 22.895 *L 0.000436 *D INVX1LVT
*I *503:B0 I *C 25.8 20.8 *L 0.000434 *D AOI21X1LVT

*CAP
1 *133:0 3.84886e-05
2 *133:1 0.000144101
3 *133:3 1.14623e-05
4 *133:4 0.000105613
5 *133:5 1.14623e-05
6 *133:6 8.76529e-06
7 *133:8 8.76529e-06

*RES
1 *133:10 *503:B0 8
2 *133:8 *133:10 8
3 *133:7 *448:A 8
4 *133:6 *133:8 0.453962
5 *133:5 *133:7 8
6 *133:4 *133:6 8
7 *133:3 *133:5 0.593643
8 *133:1 *133:4 5.61478
9 *133:1 *133:3 8
10 *133:0 *474:Y 8
11 *133:0 *133:1 2.0462
*END

*D_NET *134 4.77596e-05

*CONN
*I *476:Y O *C 22.53 24.745 *L 0 *D AND2XLLVT
*I *477:AN I *C 21.7 24.415 *L 0.000234 *D NAND2BX1LVT

*CAP
1 *134:0 7.69771e-06
2 *134:1 7.69771e-06
3 *134:3 1.61821e-05
4 *134:4 1.61821e-05

*RES
1 *134:5 *477:AN 8
2 *134:4 *134:5 8
3 *134:3 *134:4 0.838084
4 *134:1 *134:3 8
5 *134:0 *476:Y 8
6 *134:0 *134:1 0.40924
*END

*D_NET *135 0.000423831

*CONN
*I *421:A I *C 25.7 19.285 *L 0.000233 *D BUFX2LVT
*I *480:Y O *C 31.295 17.615 *L 0 *D NAND2X4LVT
*I *450:B I *C 27.4525 21.105 *L 0.00178 *D NAND2BX4LVT

*CAP
1 *135:0 2.46327e-06
2 *135:1 6.77399e-06
3 *135:3 4.31072e-06
4 *135:4 0.000161484
5 *135:5 4.36579e-05
6 *135:6 0.000161484
7 *135:7 4.36579e-05

*RES
1 *135:9 *450:B 8
2 *135:8 *480:Y 8
3 *135:7 *135:9 8
4 *135:6 *135:8 8
5 *135:5 *135:7 2.26108
6 *135:4 *135:6 8.36338
7 *135:3 *135:5 8
8 *135:1 *135:4 8
9 *135:1 *135:3 0.229175
10 *135:0 *421:A 8
11 *135:0 *135:1 0.130957
*END

*D_NET *136 0.000263678

*CONN
*I *480:A I *C 31.14 17.435 *L 0.00179 *D NAND2X4LVT
*I *479:Y O *C 29.12 17.245 *L 0 *D NOR2BX1LVT

*CAP
1 *136:0 0.000117005
2 *136:1 0.000117005
3 *136:3 1.48336e-05
4 *136:4 1.48336e-05

*RES
1 *136:5 *479:Y 8
2 *136:4 *136:5 8
3 *136:3 *136:4 0.768244
4 *136:1 *136:3 8
5 *136:0 *480:A 8
6 *136:0 *136:1 6.22045
*END

*D_NET *137 0.000221033

*CONN
*I *482:Y O *C 29.13 18.85 *L 0 *D INVX1LVT
*I *479:B I *C 29.165 17.455 *L 0.000434 *D NOR2BX1LVT

*CAP
1 *137:0 8.59065e-05
2 *137:1 8.59065e-05
3 *137:3 2.46102e-05
4 *137:4 2.46102e-05

*RES
1 *137:5 *479:B 8
2 *137:4 *137:5 8
3 *137:3 *137:4 1.27459
4 *137:1 *137:3 8
5 *137:0 *482:Y 8
6 *137:0 *137:1 4.56712
*END

*D_NET *138 0.00154622

*CONN
*I *486:Y O *C 39.61 15.675 *L 0 *D NAND2X6LVT
*I *423:A I *C 29.765 15.635 *L 0.000233 *D CLKBUFX2LVT
*I *480:B I *C 30.83 17.595 *L 0.00178 *D NAND2X4LVT

*CAP
1 *138:0 0.000251918
2 *138:1 0.000251918
3 *138:3 0.000273956
4 *138:4 0.000273956
5 *138:5 0.000197677
6 *138:6 0.000197677
7 *138:8 4.95576e-05
8 *138:9 4.95576e-05

*RES
1 *138:10 *480:B 8
2 *138:9 *138:10 8
3 *138:8 *138:9 2.56663
4 *138:6 *138:8 8
5 *138:5 *423:A 8
6 *138:5 *138:6 10.5093
7 *138:4 *138:5 8
8 *138:3 *138:4 14.2906
9 *138:1 *138:3 8
10 *138:0 *486:Y 8
11 *138:0 *138:1 17.2914
*END

*D_NET *139 0.000134534

*CONN
*I *412:Y O *C 36.755 15.77 *L 0 *D NOR2X2LVT
*I *486:A I *C 39.47 15.84 *L 0.00267 *D NAND2X6LVT

*CAP
1 *139:0 2.06275e-06
2 *139:1 2.06275e-06
3 *139:3 6.52043e-05
4 *139:4 6.52043e-05

*RES
1 *139:5 *486:A 8
2 *139:4 *139:5 8
3 *139:3 *139:4 4.59352
4 *139:1 *139:3 8
5 *139:0 *412:Y 8
6 *139:0 *139:1 0.146074
*END

*D_NET *140 0.000115169

*CONN
*I *412:B I *C 36.365 15.61 *L 0.000878 *D NOR2X2LVT
*I *485:Y O *C 37.53 14.59 *L 0 *D INVX1LVT

*CAP
1 *140:0 4.67557e-05
2 *140:1 4.67557e-05
3 *140:3 1.0829e-05
4 *140:4 1.0829e-05

*RES
1 *140:5 *485:Y 8
2 *140:4 *140:5 8
3 *140:3 *140:4 0.762882
4 *140:1 *140:3 8
5 *140:0 *412:B 8
6 *140:0 *140:1 3.31102
*END

*D_NET *141 0.000336753

*CONN
*I *479:AN I *C 29.5 17.575 *L 0.000234 *D NOR2BX1LVT
*I *484:Y O *C 32.35 17.66 *L 0 *D OR2X1LVT
*I *478:A I *C 28.81 15.86 *L 0.000884 *D NAND2X2LVT

*CAP
1 *141:0 0.00010007
2 *141:1 0.000104997
3 *141:3 3.37126e-06
4 *141:4 4.92654e-06
5 *141:5 3.37126e-06
6 *141:6 6.00085e-05
7 *141:8 6.00085e-05

*RES
1 *141:10 *478:A 8
2 *141:8 *141:10 8
3 *141:7 *484:Y 8
4 *141:6 *141:8 3.1079
5 *141:5 *141:7 8
6 *141:4 *141:6 8
7 *141:3 *141:5 0.174601
8 *141:1 *141:4 0.261914
9 *141:1 *141:3 8
10 *141:0 *479:AN 8
11 *141:0 *141:1 5.32012
*END

*D_NET *142 0.000633686

*CONN
*I *487:Y O *C 38.34 19.6 *L 0 *D CLKXOR2X1LVT
*I *424:B I *C 37.9 19.665 *L 0.000433 *D NAND2X1LVT
*I *426:A0 I *C 34.14 17.64 *L 0.00179 *D AOI21X4LVT

*CAP
1 *142:0 8.34268e-05
2 *142:1 0.000167541
3 *142:3 8.41143e-05
4 *142:4 0.000116815
5 *142:5 3.24869e-05
6 *142:6 0.000116815
7 *142:7 3.24869e-05

*RES
1 *142:9 *426:A0 8
2 *142:8 *424:B 8
3 *142:7 *142:9 8
4 *142:6 *142:8 8
5 *142:5 *142:7 2.28865
6 *142:4 *142:6 8.22939
7 *142:3 *142:5 8
8 *142:1 *142:4 8
9 *142:1 *142:3 5.95658
10 *142:0 *487:Y 8
11 *142:0 *142:1 5.90789
*END

*D_NET *143 0.000236177

*CONN
*I *478:Y O *C 28.95 15.725 *L 0 *D NAND2X2LVT
*I *481:A I *C 27.5 16.055 *L 0.000884 *D INVX2LVT

*CAP
1 *143:0 2.0322e-05
2 *143:1 2.0322e-05
3 *143:3 9.77667e-05
4 *143:4 9.77667e-05

*RES
1 *143:5 *481:A 8
2 *143:4 *143:5 8
3 *143:3 *143:4 5.06343
4 *143:1 *143:3 8
5 *143:0 *478:Y 8
6 *143:0 *143:1 1.08039
*END

*D_NET *144 0.000539621

*CONN
*I *488:Y O *C 24.55 11.06 *L 0 *D XOR2XLLVT
*I *489:B I *C 26.77 12.405 *L 0.000467 *D XOR2XLLVT

*CAP
1 *144:0 1.63185e-05
2 *144:1 1.63185e-05
3 *144:3 0.000253492
4 *144:4 0.000253492

*RES
1 *144:5 *489:B 8
2 *144:4 *144:5 8
3 *144:3 *144:4 15.2941
4 *144:1 *144:3 8
5 *144:0 *488:Y 8
6 *144:0 *144:1 1.07602
*END

*D_NET *145 0.00153537

*CONN
*I *475:A I *C 27.7 9.215 *L 0.000884 *D INVX2LVT
*I *470:Y O *C 23.66 9.345 *L 0 *D OAI21X4LVT

*CAP
1 *145:0 5.934e-05
2 *145:1 5.934e-05
3 *145:3 0.000708344
4 *145:4 0.000708344

*RES
1 *145:5 *470:Y 8
2 *145:4 *145:5 8
3 *145:3 *145:4 42.7371
4 *145:1 *145:3 8
5 *145:0 *475:A 8
6 *145:0 *145:1 3.91281
*END

*D_NET *146 0.00013601

*CONN
*I *490:A I *C 28.5 19.475 *L 0.000234 *D INVXLLVT
*I *482:A I *C 28.9 19.475 *L 0.000436 *D INVX1LVT
*I *496:Y O *C 27.325 19.055 *L 0 *D OR2XLLVT

*CAP
1 *146:0 4.04552e-05
2 *146:1 4.21408e-05
3 *146:3 1.68563e-06
4 *146:6 2.58643e-05
5 *146:8 2.58643e-05

*RES
1 *146:8 *496:Y 8
2 *146:6 *146:8 1.37505
3 *146:4 *482:A 8
4 *146:3 *146:6 8
5 *146:2 *490:A 8
6 *146:1 *146:4 8
7 *146:1 *146:3 0.0873005
8 *146:0 *146:2 8
9 *146:0 *146:1 2.09521
*END

*D_NET *147 0.000437019

*CONN
*I *447:A I *C 24.81 19.28 *L 0.000884 *D NAND2X2LVT
*I *495:Y O *C 26.555 19.24 *L 0 *D NAND2X1LVT
*I *449:A I *C 26.3 20.805 *L 0.000436 *D INVX1LVT

*CAP
1 *147:0 0.000102226
2 *147:1 0.000102226
3 *147:3 9.81038e-05
4 *147:4 9.81038e-05
5 *147:5 1.44717e-05
6 *147:6 1.44717e-05
7 *147:8 3.70839e-06
8 *147:9 3.70839e-06

*RES
1 *147:10 *449:A 8
2 *147:9 *147:10 8
3 *147:8 *147:9 0.192061
4 *147:6 *147:8 8
5 *147:5 *495:Y 8
6 *147:5 *147:6 0.769372
7 *147:4 *147:5 8
8 *147:3 *147:4 5.08089
9 *147:1 *147:3 8
10 *147:0 *447:A 8
11 *147:0 *147:1 5.43471
*END

*D_NET *148 0.000152835

*CONN
*I *494:A0 I *C 27.225 17.44 *L 0.000436 *D OAI21X1LVT
*I *493:Y O *C 25.74 17.275 *L 0 *D XNOR2X1LVT

*CAP
1 *148:0 2.24773e-05
2 *148:1 2.24773e-05
3 *148:3 5.39402e-05
4 *148:4 5.39402e-05

*RES
1 *148:5 *493:Y 8
2 *148:4 *148:5 8
3 *148:3 *148:4 2.79361
4 *148:1 *148:3 8
5 *148:0 *494:A0 8
6 *148:0 *148:1 1.19498
*END

*D_NET *149 0.000213167

*CONN
*I *494:B0 I *C 27.595 17.75 *L 0.000433 *D OAI21X1LVT
*I *492:Y O *C 28.32 18.035 *L 0 *D NAND2BX1LVT

*CAP
1 *149:0 2.43248e-05
2 *149:1 2.43248e-05
3 *149:3 8.22589e-05
4 *149:4 8.22589e-05

*RES
1 *149:5 *492:Y 8
2 *149:4 *149:5 8
3 *149:3 *149:4 4.26026
4 *149:1 *149:3 8
5 *149:0 *494:B0 8
6 *149:0 *149:1 1.2932
*END

*D_NET *150 4.21947e-05

*CONN
*I *491:Y O *C 28.18 19.03 *L 0 *D AOI21X1LVT
*I *492:AN I *C 28.7 17.575 *L 0.000234 *D NAND2BX1LVT

*CAP
1 *150:0 1.57033e-05
2 *150:1 1.57033e-05
3 *150:3 5.39402e-06
4 *150:4 5.39402e-06

*RES
1 *150:5 *492:AN 8
2 *150:4 *150:5 8
3 *150:3 *150:4 0.279361
4 *150:1 *150:3 8
5 *150:0 *491:Y 8
6 *150:0 *150:1 0.83485
*END

*D_NET *151 6.32404e-05

*CONN
*I *491:B0 I *C 28 19.48 *L 0.000434 *D AOI21X1LVT
*I *490:Y O *C 28.7 19.665 *L 0 *D INVXLLVT

*CAP
1 *151:0 1.13926e-05
2 *151:1 1.13926e-05
3 *151:3 2.02276e-05
4 *151:4 2.02276e-05

*RES
1 *151:5 *490:Y 8
2 *151:4 *151:5 8
3 *151:3 *151:4 1.04761
4 *151:1 *151:3 8
5 *151:0 *491:B0 8
6 *151:0 *151:1 0.605676
*END

*D_NET *152 0.000216543

*CONN
*I *473:A0 I *C 35.14 8.96 *L 0.00179 *D OAI21X4LVT
*I *502:Y O *C 33.33 8.59 *L 0 *D INVX1LVT

*CAP
1 *152:0 1.69604e-05
2 *152:1 1.69604e-05
3 *152:3 9.13112e-05
4 *152:4 9.13112e-05

*RES
1 *152:5 *502:Y 8
2 *152:4 *152:5 8
3 *152:3 *152:4 5.94726
4 *152:1 *152:3 8
5 *152:0 *473:A0 8
6 *152:0 *152:1 1.20105
*END

*D_NET *153 0.0003934

*CONN
*I *370:Y O *C 32.365 8.4 *L 0 *D NAND2BX4LVT
*I *497:B0 I *C 30.265 8.985 *L 0.000436 *D OAI2BB1X1LVT
*I *502:A I *C 33.1 9.215 *L 0.000436 *D INVX1LVT

*CAP
1 *153:0 2.89283e-05
2 *153:1 4.03018e-05
3 *153:3 0.000115851
4 *153:4 1.13735e-05
5 *153:5 0.000115851
6 *153:6 4.05477e-05
7 *153:8 4.05477e-05

*RES
1 *153:10 *502:A 8
2 *153:8 *153:10 8
3 *153:7 *497:B0 8
4 *153:6 *153:8 2.4464
5 *153:5 *153:7 8
6 *153:4 *153:6 8
7 *153:3 *153:5 6.98971
8 *153:1 *153:4 0.749956
9 *153:1 *153:3 8
10 *153:0 *370:Y 8
11 *153:0 *153:1 1.9075
*END

*D_NET *154 0.000482959

*CONN
*I *473:B0 I *C 35.765 8.985 *L 0.00178 *D OAI21X4LVT
*I *501:Y O *C 32.555 10.78 *L 0 *D NAND2X1LVT

*CAP
1 *154:0 7.86137e-05
2 *154:1 7.86137e-05
3 *154:3 0.000162866
4 *154:4 0.000162866

*RES
1 *154:5 *501:Y 8
2 *154:4 *154:5 8
3 *154:3 *154:4 10.5557
4 *154:1 *154:3 8
5 *154:0 *473:B0 8
6 *154:0 *154:1 5.56705
*END

*D_NET *155 0.000124366

*CONN
*I *500:A0 I *C 29.74 10.8 *L 0.000882 *D OAI21X2LVT
*I *499:Y O *C 30.74 10.435 *L 0 *D XNOR2X1LVT

*CAP
1 *155:0 1.80493e-05
2 *155:1 1.80493e-05
3 *155:3 4.41336e-05
4 *155:4 4.41336e-05

*RES
1 *155:5 *499:Y 8
2 *155:4 *155:5 8
3 *155:3 *155:4 2.66274
4 *155:1 *155:3 8
5 *155:0 *500:A0 8
6 *155:0 *155:1 1.19015
*END

*D_NET *156 7.25145e-05

*CONN
*I *500:B0 I *C 30.34 10.8 *L 0.000879 *D OAI21X2LVT
*I *498:Y O *C 29.15 8.885 *L 0 *D NAND2X2LVT

*CAP
1 *156:0 3.70875e-06
2 *156:1 3.70875e-06
3 *156:3 3.25485e-05
4 *156:4 3.25485e-05

*RES
1 *156:5 *498:Y 8
2 *156:4 *156:5 8
3 *156:3 *156:4 1.96377
4 *156:1 *156:3 8
5 *156:0 *500:B0 8
6 *156:0 *156:1 0.244551
*END

*D_NET *157 9.98806e-05

*CONN
*I *498:A I *C 29.01 9.02 *L 0.000884 *D NAND2X2LVT
*I *497:Y O *C 30.135 8.54 *L 0 *D OAI2BB1X1LVT

*CAP
1 *157:0 2.3736e-05
2 *157:1 2.3736e-05
3 *157:3 2.62043e-05
4 *157:4 2.62043e-05

*RES
1 *157:5 *497:Y 8
2 *157:4 *157:5 8
3 *157:3 *157:4 1.581
4 *157:1 *157:3 8
5 *157:0 *498:A 8
6 *157:0 *157:1 1.56513
*END

*D_NET *158 0.000156238

*CONN
*I *474:A I *C 24.9 22.895 *L 0.000436 *D INVX1LVT
*I *508:Y O *C 24.125 22.475 *L 0 *D OR2XLLVT

*CAP
1 *158:0 2.58643e-05
2 *158:1 2.58643e-05
3 *158:3 5.22546e-05
4 *158:4 5.22546e-05

*RES
1 *158:5 *508:Y 8
2 *158:4 *158:5 8
3 *158:3 *158:4 2.70631
4 *158:1 *158:3 8
5 *158:0 *474:A 8
6 *158:0 *158:1 1.37505
*END

*D_NET *159 0.000369198

*CONN
*I *467:A I *C 24.54 24.275 *L 0.00179 *D NAND2X4LVT
*I *468:B I *C 25.1 24.225 *L 0.000433 *D NAND2BX1LVT
*I *507:Y O *C 24.755 22.66 *L 0 *D NAND2X1LVT

*CAP
1 *159:0 3.07909e-06
2 *159:1 9.39121e-05
3 *159:3 3.77582e-05
4 *159:4 9.0833e-05
5 *159:5 3.77582e-05
6 *159:6 5.29289e-05
7 *159:8 5.29289e-05

*RES
1 *159:10 *507:Y 8
2 *159:8 *159:10 8
3 *159:7 *468:B 8
4 *159:6 *159:8 2.74123
5 *159:5 *159:7 8
6 *159:4 *159:6 8
7 *159:3 *159:5 1.95553
8 *159:1 *159:4 4.82904
9 *159:1 *159:3 8
10 *159:0 *467:A 8
11 *159:0 *159:1 0.163696
*END

*D_NET *160 0.000152835

*CONN
*I *506:A0 I *C 23.625 20.86 *L 0.000436 *D OAI21X1LVT
*I *505:Y O *C 22.14 20.695 *L 0 *D XNOR2X1LVT

*CAP
1 *160:0 2.24773e-05
2 *160:1 2.24773e-05
3 *160:3 5.39402e-05
4 *160:4 5.39402e-05

*RES
1 *160:5 *505:Y 8
2 *160:4 *160:5 8
3 *160:3 *160:4 2.79361
4 *160:1 *160:3 8
5 *160:0 *506:A0 8
6 *160:0 *160:1 1.19498
*END

*D_NET *161 0.000213167

*CONN
*I *506:B0 I *C 23.995 21.17 *L 0.000433 *D OAI21X1LVT
*I *504:Y O *C 24.72 21.455 *L 0 *D NAND2BX1LVT

*CAP
1 *161:0 2.43248e-05
2 *161:1 2.43248e-05
3 *161:3 8.22589e-05
4 *161:4 8.22589e-05

*RES
1 *161:5 *504:Y 8
2 *161:4 *161:5 8
3 *161:3 *161:4 4.26026
4 *161:1 *161:3 8
5 *161:0 *506:B0 8
6 *161:0 *161:1 1.2932
*END

*D_NET *162 4.21947e-05

*CONN
*I *503:Y O *C 25.98 21.25 *L 0 *D AOI21X1LVT
*I *504:AN I *C 25.1 20.995 *L 0.000234 *D NAND2BX1LVT

*CAP
1 *162:0 1.57033e-05
2 *162:1 1.57033e-05
3 *162:3 5.39402e-06
4 *162:4 5.39402e-06

*RES
1 *162:5 *504:AN 8
2 *162:4 *162:5 8
3 *162:3 *162:4 0.279361
4 *162:1 *162:3 8
5 *162:0 *503:Y 8
6 *162:0 *162:1 0.83485
*END

*D_NET *163 0.000502479

*CONN
*I *516:Y O *C 39.095 12.405 *L 0 *D NAND2X4LVT
*I *442:A I *C 38.9 14.155 *L 0.000233 *D BUFX2LVT
*I *486:B I *C 39.125 15.845 *L 0.00265 *D NAND2X6LVT

*CAP
1 *163:0 7.65509e-05
2 *163:1 0.000155852
3 *163:3 7.93013e-05
4 *163:4 8.31758e-05
5 *163:5 1.22114e-05
6 *163:6 8.31758e-05
7 *163:7 1.22114e-05

*RES
1 *163:9 *486:B 8
2 *163:8 *442:A 8
3 *163:7 *163:9 8
4 *163:6 *163:8 8
5 *163:5 *163:7 0.860271
6 *163:4 *163:6 5.85958
7 *163:3 *163:5 8
8 *163:1 *163:4 8
9 *163:1 *163:3 5.61574
10 *163:0 *516:Y 8
11 *163:0 *163:1 5.42098
*END

*D_NET *164 0.000306787

*CONN
*I *515:Y O *C 36.725 12.215 *L 0 *D OR2XLLVT
*I *509:A I *C 36.9 12.635 *L 0.000234 *D INVXLLVT
*I *516:A I *C 38.94 12.585 *L 0.00179 *D NAND2X4LVT

*CAP
1 *164:0 1.92523e-05
2 *164:1 9.53449e-05
3 *164:3 5.73576e-05
4 *164:4 7.60925e-05
5 *164:5 5.73576e-05
6 *164:6 6.91211e-07
7 *164:8 6.91211e-07

*RES
1 *164:10 *516:A 8
2 *164:8 *164:10 8
3 *164:7 *509:A 8
4 *164:6 *164:8 0.0486946
5 *164:5 *164:7 8
6 *164:4 *164:6 8
7 *164:3 *164:5 3.98494
8 *164:1 *164:4 5.38852
9 *164:1 *164:3 8
10 *164:0 *515:Y 8
11 *164:0 *164:1 1.36336
*END

*D_NET *165 0.000247801

*CONN
*I *485:A I *C 37.3 13.965 *L 0.000436 *D INVX1LVT
*I *483:A I *C 37.7 14.155 *L 0.000436 *D NAND2X1LVT
*I *514:Y O *C 37.155 14.2 *L 0 *D NAND2X1LVT

*CAP
1 *165:0 8.93858e-06
2 *165:1 1.07721e-05
3 *165:3 1.83356e-06
4 *165:4 0.000106447
5 *165:5 6.68171e-06
6 *165:6 0.000106447
7 *165:7 6.68171e-06

*RES
1 *165:9 *514:Y 8
2 *165:8 *483:A 8
3 *165:7 *165:9 8
4 *165:6 *165:8 8
5 *165:5 *165:7 0.470714
6 *165:4 *165:6 7.49897
7 *165:3 *165:5 8
8 *165:1 *165:4 8
9 *165:1 *165:3 0.129844
10 *165:0 *485:A 8
11 *165:0 *165:1 0.632988
*END

*D_NET *166 0.000189682

*CONN
*I *513:A0 I *C 34.825 10.6 *L 0.000436 *D OAI21X1LVT
*I *512:Y O *C 33.14 10.435 *L 0 *D XNOR2X1LVT

*CAP
1 *166:0 7.56342e-06
2 *166:1 7.56342e-06
3 *166:3 8.72775e-05
4 *166:4 8.72775e-05

*RES
1 *166:5 *512:Y 8
2 *166:4 *166:5 8
3 *166:3 *166:4 5.55708
4 *166:1 *166:3 8
5 *166:0 *513:A0 8
6 *166:0 *166:1 0.535605
*END

*D_NET *167 0.000111378

*CONN
*I *511:Y O *C 36.12 11.195 *L 0 *D NAND2BX1LVT
*I *513:B0 I *C 35.195 10.91 *L 0.000433 *D OAI21X1LVT

*CAP
1 *167:0 1.30641e-05
2 *167:1 1.30641e-05
3 *167:3 4.26247e-05
4 *167:4 4.26247e-05

*RES
1 *167:5 *513:B0 8
2 *167:4 *167:5 8
3 *167:3 *167:4 3.00283
4 *167:1 *167:3 8
5 *167:0 *511:Y 8
6 *167:0 *167:1 0.925137
*END

*D_NET *168 0.000246503

*CONN
*I *511:AN I *C 36.5 10.735 *L 0.000234 *D NAND2BX1LVT
*I *510:Y O *C 35.78 12.19 *L 0 *D AOI21X1LVT

*CAP
1 *168:0 9.00734e-05
2 *168:1 9.00734e-05
3 *168:3 3.31782e-05
4 *168:4 3.31782e-05

*RES
1 *168:5 *510:Y 8
2 *168:4 *168:5 8
3 *168:3 *168:4 2.33734
4 *168:1 *168:3 8
5 *168:0 *511:AN 8
6 *168:0 *168:1 6.37857
*END

*D_NET *169 9.23769e-05

*CONN
*I *509:Y O *C 37.1 12.825 *L 0 *D INVXLLVT
*I *510:B0 I *C 35.6 12.64 *L 0.000434 *D AOI21X1LVT

*CAP
1 *169:0 8.48019e-06
2 *169:1 8.48019e-06
3 *169:3 3.77083e-05
4 *169:4 3.77083e-05

*RES
1 *169:5 *510:B0 8
2 *169:4 *169:5 8
3 *169:3 *169:4 2.32169
4 *169:1 *169:3 8
5 *169:0 *509:Y 8
6 *169:0 *169:1 0.600527
*END

*D_NET *170 1.88916e-05

*CONN
*I *520:Y O *C 21.9 20.615 *L 0 *D INVXLLVT
*I *374:A I *C 21.3 20.805 *L 0.000436 *D INVX1LVT

*CAP
1 *170:0 9.4458e-06
2 *170:1 9.4458e-06

*RES
1 *170:1 *374:A 8
2 *170:0 *520:Y 8
3 *170:0 *170:1 0.619558
*END

*D_NET *171 0.000353942

*CONN
*I *542:AN I *C 31.5 20.995 *L 0.000234 *D NOR2BX1LVT
*I *521:Y O *C 30.73 21.43 *L 0 *D INVX1LVT

*CAP
1 *171:1 1.17005e-05
2 *171:2 1.17005e-05
3 *171:3 0.000148336
4 *171:4 0.000148336
5 *171:5 1.50875e-05
6 *171:6 1.6935e-05
7 *171:7 1.84745e-06

*RES
1 *171:7 *521:Y 8
2 *171:6 *171:7 0.0982177
3 *171:5 *171:6 0.802111
4 *171:4 *171:5 8
5 *171:3 *171:4 7.68244
6 *171:2 *171:3 8
7 *171:1 *171:2 0.622045
8 *542:AN *171:1 8
*END

*D_NET *172 0.00417125

*CONN
*I *641:RN I *C 28.1 31.255 *L 0.000679 *D DFFRHQX1LVT
*I *631:RN I *C 24.9 32.965 *L 0.000679 *D DFFRHQX1LVT
*I *546:RN I *C 30.7 29.545 *L 0.000679 *D SDFFRHQX1LVT
*I *581:RN I *C 28.5 36.385 *L 0.000679 *D SDFFRHQX1LVT
*I *665:RN I *C 24.7 36.385 *L 0.000464 *D DFFRX1LVT
*I *543:RN I *C 27.055 27.975 *L 0.000679 *D SDFFRHQX2LVT
*I *646:RN I *C 21.34 36.39 *L 0.00103 *D DFFRHQX4LVT
*I *645:RN I *C 19.3 32.965 *L 0.000679 *D DFFRHQX1LVT
*I *636:RN I *C 14.5 36.385 *L 0.000464 *D DFFRX1LVT
*I *528:Y O *C 11.565 33.295 *L 0 *D CLKINVX6LVT
*I *635:RN I *C 9.9 36.385 *L 0.000464 *D DFFRXLLVT

*CAP
1 *172:0 0.000188791
2 *172:1 0.000188791
3 *172:2 0.000105305
4 *172:3 0.00028951
5 *172:5 0.000201988
6 *172:6 0.00028951
7 *172:9 0.000229246
8 *172:10 9.66833e-05
9 *172:11 0.000196096
10 *172:14 0.000229246
11 *172:15 1.65192e-05
12 *172:16 0.000134171
13 *172:17 0.00025802
14 *172:20 1.65192e-05
15 *172:22 0.000206416
16 *172:28 0.000216632
17 *172:34 0.000184206
18 *172:35 0.000370303
19 *172:41 0.000184206
20 *172:42 0.000213399
21 *172:48 0.000153144
22 *172:49 4.94064e-05
23 *172:52 0.000153144

*RES
1 *172:60 *635:RN 8
2 *172:59 *528:Y 8
3 *172:57 *172:60 8
4 *172:56 *172:59 8
5 *172:54 *636:RN 8
6 *172:53 *172:57 8
7 *172:52 *172:56 8
8 *172:51 *645:RN 8
9 *172:50 *172:54 8
10 *172:49 *172:53 8
11 *172:48 *172:52 10.0438
12 *172:47 *172:51 8
13 *172:43 *172:50 8
14 *172:42 *172:49 3.48022
15 *172:42 *172:48 8
16 *172:41 *172:47 8
17 *172:40 *646:RN 8
18 *172:38 *543:RN 8
19 *172:36 *665:RN 8
20 *172:35 *172:43 8
21 *172:35 *172:42 11.5517
22 *172:34 *172:41 11.136
23 *172:33 *172:40 8
24 *172:32 *581:RN 8
25 *172:31 *172:38 8
26 *172:30 *546:RN 8
27 *172:29 *172:36 8
28 *172:28 *172:35 13.7409
29 *172:28 *172:34 8
30 *172:27 *172:33 8
31 *172:26 *172:32 8
32 *172:25 *172:31 8
33 *172:24 *172:30 8
34 *172:23 *172:29 8
35 *172:22 *172:28 0.655028
36 *172:22 *172:27 8
37 *172:21 *172:26 8
38 *172:20 *172:25 8
39 *172:19 *172:24 8
40 *172:17 *172:23 8
41 *172:17 *172:22 12.4455
42 *172:16 *172:21 8
43 *172:15 *172:20 0.855544
44 *172:14 *172:19 8
45 *172:12 *631:RN 8
46 *172:11 *172:17 3.93017
47 *172:11 *172:16 8.51537
48 *172:10 *172:15 8
49 *172:9 *172:14 11.8729
50 *172:8 *641:RN 8
51 *172:7 *172:12 8
52 *172:6 *172:11 8
53 *172:5 *172:10 5.14006
54 *172:5 *172:9 8
55 *172:4 *172:8 8
56 *172:3 *172:7 8
57 *172:3 *172:6 16.7344
58 *172:2 *172:5 5.59841
59 *172:2 *172:4 8
60 *172:1 *172:3 8
61 *172:0 *172:2 8
62 *172:0 *172:1 9.77765
*END

*D_NET *173 0.00123025

*CONN
*I *572:B0 I *C 32.065 22.665 *L 0.000436 *D OAI2BB1X1LVT
*I *531:Y O *C 20.93 24.36 *L 0 *D INVX2LVT

*CAP
1 *173:1 2.15536e-06
2 *173:2 4.61863e-06
3 *173:3 2.46327e-06
4 *173:4 0.000606278
5 *173:5 0.000606278
6 *173:6 2.73431e-06
7 *173:7 4.22575e-06
8 *173:8 1.49144e-06

*RES
1 *173:8 *531:Y 8
2 *173:7 *173:8 0.097825
3 *173:6 *173:7 0.179346
4 *173:5 *173:6 8
5 *173:4 *173:5 32.0227
6 *173:3 *173:4 8
7 *173:2 *173:3 0.130957
8 *173:1 *173:2 0.114587
9 *572:B0 *173:1 8
*END

*D_NET *174 0.000677233

*CONN
*I *531:A I *C 20.5 24.225 *L 0.000884 *D INVX2LVT
*I *353:Y O *C 16.7 20.52 *L 0 *D NOR3BX2LVT

*CAP
1 *174:0 0.000122856
2 *174:1 0.000122856
3 *174:3 0.000215761
4 *174:4 0.000215761

*RES
1 *174:5 *353:Y 8
2 *174:4 *174:5 8
3 *174:3 *174:4 11.1745
4 *174:1 *174:3 8
5 *174:0 *531:A 8
6 *174:0 *174:1 6.53148
*END

*D_NET *175 0.00551805

*CONN
*I *426:A1 I *C 33.3 17.575 *L 0.00179 *D AOI21X4LVT
*I *425:A1 I *C 35.5 19.285 *L 0.00179 *D AOI21X4LVT
*I *630:A1 I *C 33.1 12.445 *L 0.000876 *D AOI22X2LVT
*I *627:A1 I *C 27.9 12.445 *L 0.000876 *D AOI22X2LVT
*I *626:A1 I *C 24.1 17.575 *L 0.000876 *D AOI22X2LVT
*I *628:A1 I *C 23.9 14.155 *L 0.00179 *D AOI22X4LVT
*I *629:A1 I *C 19.5 12.445 *L 0.000876 *D AOI22X2LVT
*I *396:Y O *C 23.54 35.19 *L 0 *D CLKAND2X12LVT
*I *377:B I *C 20.34 19.105 *L 0.000876 *D NAND2BX2LVT
*I *625:A1 I *C 21.9 22.705 *L 0.000876 *D AOI22X2LVT

*CAP
1 *175:0 0.000112529
2 *175:1 0.000173909
3 *175:4 6.13796e-05
4 *175:7 8.70068e-05
5 *175:10 0.000174014
6 *175:13 8.70068e-05
7 *175:14 0.00025618
8 *175:16 0.000562357
9 *175:19 0.000330671
10 *175:22 0.000194119
11 *175:23 0.000489883
12 *175:25 0.000194119
13 *175:26 0.000465389
14 *175:29 0.000101785
15 *175:33 0.000101785
16 *175:37 0.000343146
17 *175:41 0.000783015
18 *175:43 0.000141264
19 *175:44 0.000439869
20 *175:45 0.000272425
21 *175:48 0.000131161
22 *175:51 7.51913e-06
23 *175:54 7.51913e-06

*RES
1 *175:57 *625:A1 10
2 *175:56 *175:57 10
3 *175:54 *175:56 10
4 *175:53 *377:B 10
5 *175:51 *175:54 0.450164
6 *175:50 *175:53 10
7 *175:49 *396:Y 10
8 *175:48 *175:51 10
9 *175:47 *175:50 10
10 *175:46 *175:49 10
11 *175:45 *175:48 7.6497
12 *175:45 *175:47 10
13 *175:44 *175:46 10
14 *175:43 *175:45 8.23898
15 *175:41 *175:44 26.3346
16 *175:41 *175:43 10
17 *175:39 *629:A1 10
18 *175:37 *175:41 20.5439
19 *175:36 *628:A1 10
20 *175:35 *175:39 10
21 *175:34 *626:A1 10
22 *175:33 *175:37 10
23 *175:32 *175:36 10
24 *175:31 *175:35 10
25 *175:30 *175:34 10
26 *175:29 *175:33 5.93643
27 *175:27 *175:32 10
28 *175:26 *175:31 10
29 *175:25 *175:30 10
30 *175:25 *175:29 10
31 *175:24 *627:A1 10
32 *175:23 *175:27 10
33 *175:23 *175:26 31.6201
34 *175:22 *175:25 13.9473
35 *175:21 *175:24 10
36 *175:19 *175:23 1.66422
37 *175:19 *175:22 10
38 *175:18 *175:21 10
39 *175:17 *630:A1 10
40 *175:16 *175:19 20.8027
41 *175:16 *175:18 10
42 *175:15 *175:17 10
43 *175:14 *175:16 17.464
44 *175:13 *175:15 10
45 *175:10 *175:14 10
46 *175:10 *175:13 6.93853
47 *175:9 *425:A1 10
48 *175:8 *426:A1 10
49 *175:7 *175:10 6.93853
50 *175:6 *175:9 10
51 *175:5 *175:8 10
52 *175:4 *175:7 10
53 *175:3 *175:6 10
54 *175:2 *175:5 10
55 *175:1 *175:4 4.86946
56 *175:1 *175:3 10
57 *175:0 *175:2 10
58 *175:0 *175:1 8.92734
*END

*D_NET *176 0.00461188

*CONN
*I *590:B I *C 30.2 22.655 *L 0.000233 *D NAND2XLLVT
*I *585:B I *C 30.8 22.655 *L 0.000233 *D NAND2XLLVT
*I *591:B I *C 31.3 23.085 *L 0.000433 *D NAND2X1LVT
*I *572:A1N I *C 32.5 22.895 *L 0.000233 *D OAI2BB1X1LVT
*I *589:B I *C 28 22.655 *L 0.000233 *D NAND2XLLVT
*I *593:B I *C 26.6 24.465 *L 0.000233 *D NAND2XLLVT
*I *587:B I *C 27.7 34.675 *L 0.000233 *D AND2XLLVT
*I *575:B I *C 33.3 34.675 *L 0.000233 *D AND2XLLVT
*I *595:B I *C 23.4 27.885 *L 0.000233 *D NAND2XLLVT
*I *523:Y O *C 18.735 35.14 *L 0 *D BUFX2LVT
*I *592:B I *C 17.1 24.035 *L 0.000433 *D NAND2X1LVT

*CAP
1 *176:1 6.15817e-06
2 *176:2 9.23726e-06
3 *176:3 3.07909e-06
4 *176:4 6.74253e-05
5 *176:5 0.00010788
6 *176:6 3.07909e-06
7 *176:7 0.000242731
8 *176:8 9.23726e-06
9 *176:9 2.34011e-05
10 *176:10 0.000202276
11 *176:11 6.15817e-06
12 *176:12 2.34011e-05
13 *176:13 2.34011e-05
14 *176:16 1.17005e-05
15 *176:17 1.17005e-05
16 *176:18 0.000202276
17 *176:20 2.69701e-05
18 *176:21 0.000215761
19 *176:22 0.000409518
20 *176:23 8.62144e-06
21 *176:24 4.04552e-05
22 *176:25 0.000503123
23 *176:26 1.47796e-05
24 *176:27 0.000137327
25 *176:28 9.36042e-05
26 *176:29 5.39402e-05
27 *176:30 6.15817e-06
28 *176:31 0.000128706
29 *176:32 1.47796e-05
30 *176:33 0.000310156
31 *176:34 5.39402e-05
32 *176:36 5.39402e-05
33 *176:37 6.15817e-06
34 *176:38 0.000310156
35 *176:40 0.000188791
36 *176:42 1.17005e-05
37 *176:44 3.81807e-05
38 *176:45 0.000134851
39 *176:46 1.17005e-05
40 *176:47 4.43388e-05
41 *176:48 0.000392583
42 *176:50 6.15817e-06
43 *176:51 0.000359637
44 *176:52 3.51016e-05
45 *176:54 2.15536e-06
46 *176:55 1.34851e-05
47 *176:57 1.34851e-05
48 *176:58 3.07909e-06
49 *176:59 9.23726e-06
50 *176:60 6.15817e-06

*RES
1 *176:60 *592:B 8
2 *176:59 *176:60 0.327392
3 *176:58 *176:59 0.163696
4 *176:57 *176:58 8
5 *176:55 *176:57 0.698404
6 *176:54 *523:Y 8
7 *176:52 *176:55 8
8 *176:51 *176:54 0.114587
9 *176:50 *595:B 8
10 *176:48 *176:52 1.86614
11 *176:48 *176:51 19.0051
12 *176:47 *176:50 0.327392
13 *176:46 *575:B 8
14 *176:45 *176:48 8
15 *176:44 *176:47 2.02983
16 *176:42 *176:46 0.622045
17 *176:40 *176:45 6.98404
18 *176:40 *176:44 8
19 *176:39 *587:B 8
20 *176:38 *176:42 8
21 *176:37 *593:B 8
22 *176:36 *176:40 2.79361
23 *176:34 *176:39 8
24 *176:33 *176:38 16.0633
25 *176:32 *176:37 0.327392
26 *176:31 *176:36 8
27 *176:30 *589:B 8
28 *176:29 *176:34 2.79361
29 *176:28 *176:33 8
30 *176:27 *176:32 0.458349
31 *176:27 *176:31 6.8425
32 *176:26 *176:30 0.327392
33 *176:25 *176:29 8
34 *176:25 *176:28 4.97636
35 *176:24 *176:27 8
36 *176:23 *176:26 0.458349
37 *176:22 *176:25 21.7716
38 *176:21 *176:24 2.09521
39 *176:21 *176:23 8
40 *176:20 *176:22 8
41 *176:18 *176:21 9.07925
42 *176:18 *176:20 1.39681
43 *176:17 *572:A1N 8
44 *176:16 *176:18 8
45 *176:13 *176:17 0.622045
46 *176:13 *176:16 0.622045
47 *176:12 *591:B 8
48 *176:11 *585:B 8
49 *176:10 *176:13 8
50 *176:9 *176:12 1.24409
51 *176:8 *176:11 0.327392
52 *176:7 *176:10 10.4761
53 *176:7 *176:9 8
54 *176:6 *176:8 0.163696
55 *176:5 *176:7 2.09521
56 *176:5 *176:6 8
57 *176:4 *176:5 3.49202
58 *176:3 *176:4 8
59 *176:2 *176:3 0.163696
60 *176:1 *176:2 0.327392
61 *590:B *176:1 8
*END

*D_NET *177 0.004467

*CONN
*I *629:B1 I *C 20.5 12.445 *L 0.000876 *D AOI22X2LVT
*I *628:B1 I *C 25.5 14.155 *L 0.00178 *D AOI22X4LVT
*I *627:B1 I *C 28.9 12.445 *L 0.000876 *D AOI22X2LVT
*I *626:B1 I *C 25.1 17.575 *L 0.000876 *D AOI22X2LVT
*I *630:B1 I *C 34.1 12.445 *L 0.000876 *D AOI22X2LVT
*I *425:B0 I *C 37.14 19.425 *L 0.00178 *D AOI21X4LVT
*I *380:Y O *C 21.34 28.35 *L 0 *D CLKAND2X12LVT
*I *375:B I *C 21.74 19.105 *L 0.000876 *D NAND2BX2LVT
*I *625:B1 I *C 22.9 22.705 *L 0.000876 *D AOI22X2LVT

*CAP
1 *177:0 0.000419269
2 *177:1 0.000441336
3 *177:3 0.000297902
4 *177:6 0.000497541
5 *177:7 0.000174882
6 *177:10 0.000221706
7 *177:12 0.000174882
8 *177:15 0.000163645
9 *177:17 2.42731e-05
10 *177:20 8.52603e-05
11 *177:21 7.83845e-05
12 *177:23 2.42731e-05
13 *177:25 6.75083e-05
14 *177:28 0.000217383
15 *177:30 6.75083e-05
16 *177:32 0.000452933
17 *177:35 0.000248631
18 *177:36 0.00023555
19 *177:38 0.000312853
20 *177:42 6.42226e-05
21 *177:46 9.85307e-05
22 *177:49 9.85307e-05

*RES
1 *177:52 *625:B1 8
2 *177:51 *177:52 8
3 *177:49 *177:51 8
4 *177:48 *375:B 8
5 *177:46 *177:49 5.23828
6 *177:45 *177:48 8
7 *177:43 *380:Y 8
8 *177:42 *177:46 8
9 *177:41 *177:45 8
10 *177:40 *425:B0 8
11 *177:39 *177:43 8
12 *177:38 *177:42 3.32615
13 *177:38 *177:41 8
14 *177:37 *177:40 8
15 *177:36 *177:39 8
16 *177:35 *177:38 12.8768
17 *177:33 *177:37 8
18 *177:32 *177:36 12.5228
19 *177:32 *177:35 8
20 *177:31 *630:B1 8
21 *177:30 *177:33 8
22 *177:28 *177:32 11.5569
23 *177:26 *177:31 8
24 *177:25 *177:30 4.75584
25 *177:24 *626:B1 8
26 *177:23 *177:28 8
27 *177:22 *627:B1 8
28 *177:21 *177:26 8
29 *177:20 *177:25 8
30 *177:18 *177:24 8
31 *177:17 *177:23 1.25713
32 *177:16 *177:22 8
33 *177:15 *177:21 5.55082
34 *177:15 *177:20 6.03773
35 *177:13 *628:B1 8
36 *177:12 *177:18 8
37 *177:12 *177:17 8
38 *177:11 *177:16 8
39 *177:10 *177:15 8
40 *177:9 *629:B1 8
41 *177:8 *177:13 8
42 *177:7 *177:12 11.1578
43 *177:6 *177:11 8
44 *177:6 *177:10 13.8891
45 *177:5 *177:9 8
46 *177:4 *177:8 8
47 *177:3 *177:7 8
48 *177:3 *177:6 16.6422
49 *177:2 *177:5 8
50 *177:1 *177:4 8
51 *177:1 *177:3 1.33137
52 *177:0 *177:2 8
53 *177:0 *177:1 25.2961
*END

*D_NET *178 0.0012714

*CONN
*I *349:A I *C 26.9 34.675 *L 0.00178 *D CLKINVX4LVT
*I *348:A I *C 27.3 33.155 *L 0.000884 *D INVX2LVT
*I *350:A I *C 27.9 33.155 *L 0.00133 *D INVX3LVT
*I *437:A I *C 19.945 31.395 *L 0.000233 *D OR2XLLVT
*I *527:Y O *C 24.75 34.475 *L 0 *D CLKBUFX6LVT
*I *616:B I *C 17.965 34.93 *L 0.000878 *D NOR2X2LVT
*I *347:A I *C 26.385 34.635 *L 0.00178 *D INVX4LVT

*CAP
1 *178:0 2.62337e-08
2 *178:1 2.62337e-08
3 *178:3 0.00029292
4 *178:5 2.76237e-06
5 *178:6 0.000292893
6 *178:7 2.73502e-06
7 *178:9 0.000221402
8 *178:10 8.39478e-06
9 *178:12 2.3348e-05
10 *178:13 0.000198054
11 *178:14 7.87011e-06
12 *178:15 5.24674e-07
13 *178:16 7.54864e-05
14 *178:18 3.47347e-05
15 *178:20 7.54864e-05
16 *178:21 3.47347e-05

*RES
1 *178:23 *347:A 8
2 *178:22 *616:B 8
3 *178:21 *178:23 8
4 *178:20 *178:22 8
5 *178:18 *178:21 2.07972
6 *178:16 *178:20 4.5197
7 *178:15 *527:Y 8
8 *178:14 *178:18 8
9 *178:13 *437:A 8
10 *178:12 *178:16 8
11 *178:10 *178:15 0.0324609
12 *178:10 *178:14 0.486914
13 *178:9 *178:13 10.1085
14 *178:9 *178:12 1.44451
15 *178:8 *350:A 8
16 *178:7 *178:10 8
17 *178:6 *178:9 8
18 *178:5 *178:8 8
19 *178:5 *178:7 0.163757
20 *178:3 *178:6 17.5367
21 *178:3 *178:5 0.00163757
22 *178:1 *348:A 8
23 *178:1 *178:3 8
24 *178:0 *349:A 8
25 *178:0 *178:1 0.00162305
*END

*D_NET *179 0.00936909

*CONN
*I *541:RN I *C 37.5 17.575 *L 0.000679 *D DFFRHQX1LVT
*I *559:RN I *C 33.9 27.835 *L 0.000679 *D DFFRHQX1LVT
*I *560:RN I *C 33.9 22.705 *L 0.000679 *D DFFRHQX1LVT
*I *561:RN I *C 37.3 26.125 *L 0.000679 *D DFFRHQX1LVT
*I *544:RN I *C 37.1 20.995 *L 0.000679 *D DFFRHQX1LVT
*I *557:RN I *C 37.3 31.255 *L 0.000679 *D DFFRHQX1LVT
*I *579:RN I *C 35.3 34.675 *L 0.000679 *D DFFRHQX1LVT
*I *550:RN I *C 37.1 29.545 *L 0.000679 *D DFFRHQX1LVT
*I *553:RN I *C 37.5 32.965 *L 0.000679 *D DFFRHQX1LVT
*I *564:RN I *C 33.7 26.125 *L 0.000679 *D DFFRHQX1LVT
*I *573:RN I *C 37.5 36.385 *L 0.000679 *D DFFRHQX1LVT
*I *568:RN I *C 37.5 27.835 *L 0.000679 *D DFFRHQX1LVT
*I *562:RN I *C 37.5 24.415 *L 0.000679 *D DFFRHQX1LVT
*I *570:RN I *C 29.7 34.675 *L 0.000679 *D SDFFRHQX1LVT
*I *549:RN I *C 31.7 31.255 *L 0.000679 *D SDFFRHQX1LVT
*I *563:RN I *C 33.9 24.415 *L 0.000679 *D DFFRHQX1LVT
*I *547:RN I *C 33.1 20.995 *L 0.000679 *D DFFRHQX1LVT
*I *569:RN I *C 37.5 22.705 *L 0.000679 *D DFFRHQX1LVT
*I *555:RN I *C 33.3 36.385 *L 0.000679 *D DFFRHQX1LVT
*I *552:RN I *C 31.1 32.965 *L 0.000679 *D SDFFRHQX1LVT
*I *618:RN I *C 32.9 15.865 *L 0.000679 *D DFFRHQX1LVT
*I *617:RN I *C 30.5 19.285 *L 0.000679 *D DFFRHQX1LVT
*I *623:RN I *C 30.7 14.155 *L 0.000679 *D DFFRHQX1LVT
*I *529:Y O *C 10.165 32.86 *L 0 *D CLKINVX12LVT
*I *624:RN I *C 34.3 14.155 *L 0.000679 *D DFFRHQX1LVT

*CAP
1 *179:2 1.28817e-05
2 *179:3 1.28817e-05
3 *179:4 9.79236e-05
4 *179:5 0.000195847
5 *179:6 0.000195847
6 *179:7 1.28817e-05
7 *179:8 0.000195847
8 *179:10 1.28817e-05
9 *179:11 0.000304651
10 *179:14 0.000206728
11 *179:17 0.000219894
12 *179:18 2.57634e-05
13 *179:19 0.000207013
14 *179:20 1.28817e-05
15 *179:21 8.70432e-05
16 *179:22 3.51016e-05
17 *179:23 1.08804e-05
18 *179:24 0.000184967
19 *179:25 9.36042e-05
20 *179:26 1.17005e-05
21 *179:27 0.000108804
22 *179:28 9.79236e-05
23 *179:30 7.02032e-05
24 *179:31 6.74253e-05
25 *179:34 9.79236e-05
26 *179:36 1.34851e-05
27 *179:37 6.74253e-05
28 *179:39 2.69701e-05
29 *179:40 5.85026e-05
30 *179:41 0.000105305
31 *179:42 1.34851e-05
32 *179:43 0.000140406
33 *179:44 0.000105305
34 *179:46 0.000310156
35 *179:47 0.000187208
36 *179:50 0.000310156
37 *179:51 1.34851e-05
38 *179:52 0.000210609
39 *179:53 2.34011e-05
40 *179:54 1.34851e-05
41 *179:56 0.000210609
42 *179:57 0.000245711
43 *179:59 1.34851e-05
44 *179:60 0.000210609
45 *179:61 0.00022231
46 *179:64 1.34851e-05
47 *179:65 1.34851e-05
48 *179:66 0.000105305
49 *179:67 8.09104e-05
50 *179:69 1.34851e-05
51 *179:70 0.000337126
52 *179:71 5.39402e-05
53 *179:72 2.69701e-05
54 *179:75 2.69701e-05
55 *179:76 0.000323641
56 *179:77 9.36042e-05
57 *179:78 1.17005e-05
58 *179:81 0.000195627
59 *179:82 1.34851e-05
60 *179:83 9.36042e-05
61 *179:84 1.17005e-05
62 *179:86 0.000280186
63 *179:90 0.00113877
64 *179:92 8.45595e-05
65 *179:94 0.00113877
66 *179:95 1.10334e-05
67 *179:96 5.22005e-06
68 *179:97 2.20668e-05
69 *179:98 8.4515e-06
70 *179:99 1.10334e-05
71 *179:101 3.23146e-06
72 *179:102 8.45595e-05
73 *179:105 8.45595e-05

*RES
1 *179:105 *624:RN 8
2 *179:102 *179:105 5.57576
3 *179:101 *529:Y 8
4 *179:100 *623:RN 8
5 *179:99 *179:102 8
6 *179:98 *179:101 0.211954
7 *179:97 *179:100 8
8 *179:97 *179:99 0.665686
9 *179:96 *179:98 0.342387
10 *179:95 *179:97 0.665686
11 *179:94 *179:96 8
12 *179:92 *179:95 8
13 *179:90 *179:94 61.7036
14 *179:87 *617:RN 8
15 *179:86 *179:92 5.57576
16 *179:86 *618:RN 8
17 *179:84 *179:90 8
18 *179:84 *552:RN 8
19 *179:83 *555:RN 8
20 *179:82 *179:87 8
21 *179:81 *179:86 11.1805
22 *179:80 *569:RN 8
23 *179:78 *179:84 0.622045
24 *179:77 *179:83 4.97636
25 *179:76 *179:82 0.698404
26 *179:76 *179:81 8
27 *179:75 *179:80 8
28 *179:74 *547:RN 8
29 *179:72 *179:78 8
30 *179:71 *179:77 8
31 *179:70 *179:76 16.0633
32 *179:70 *179:75 1.39681
33 *179:69 *179:74 8
34 *179:68 *563:RN 8
35 *179:67 *179:72 1.39681
36 *179:67 *179:71 2.79361
37 *179:66 *179:70 8
38 *179:65 *179:69 0.698404
39 *179:64 *179:68 8
40 *179:61 *179:67 8
41 *179:60 *179:66 5.59841
42 *179:60 *179:65 8
43 *179:59 *179:64 0.698404
44 *179:58 *549:RN 8
45 *179:57 *570:RN 8
46 *179:57 *179:61 11.8189
47 *179:56 *179:60 5.59841
48 *179:56 *179:59 8
49 *179:54 *179:58 8
50 *179:53 *179:57 1.24409
51 *179:52 *179:56 5.59841
52 *179:52 *562:RN 8
53 *179:51 *179:54 0.698404
54 *179:50 *179:53 8
55 *179:47 *179:52 5.59841
56 *179:47 *179:51 8
57 *179:46 *179:50 16.0633
58 *179:45 *568:RN 8
59 *179:44 *573:RN 8
60 *179:43 *179:47 4.35432
61 *179:43 *179:46 8
62 *179:42 *179:45 8
63 *179:41 *179:44 5.59841
64 *179:40 *179:43 3.11023
65 *179:39 *179:42 0.698404
66 *179:39 *179:41 8
67 *179:37 *179:40 8
68 *179:36 *179:39 0.698404
69 *179:34 *564:RN 8
70 *179:31 *179:37 3.49202
71 *179:30 *179:36 8
72 *179:28 *553:RN 8
73 *179:27 *179:34 5.60468
74 *179:27 *550:RN 8
75 *179:26 *579:RN 8
76 *179:25 *179:31 8
77 *179:25 *179:30 3.73227
78 *179:24 *557:RN 8
79 *179:24 *179:28 5.60468
80 *179:23 *179:27 0.622742
81 *179:22 *179:26 0.622045
82 *179:22 *179:25 1.24409
83 *179:21 *179:24 4.98194
84 *179:20 *179:23 8
85 *179:19 *179:22 8
86 *179:18 *179:21 8
87 *179:18 *179:20 0.680821
88 *179:17 *179:19 10.9195
89 *179:17 *179:18 0.680821
90 *179:14 *179:17 8
91 *179:13 *544:RN 8
92 *179:11 *561:RN 8
93 *179:11 *179:14 11.8321
94 *179:10 *179:13 8
95 *179:8 *560:RN 8
96 *179:8 *179:11 5.60468
97 *179:7 *179:10 0.680821
98 *179:6 *559:RN 8
99 *179:6 *179:8 5.60468
100 *179:5 *179:7 8
101 *179:5 *179:6 5.60468
102 *179:4 *179:5 5.60468
103 *179:3 *179:4 8
104 *179:2 *179:3 0.680821
105 *179:1 *179:2 8
106 *541:RN *179:1 8
*END

*D_NET *180 0.000606818

*CONN
*I *522:A I *C 28.9 24.415 *L 0.00178 *D CLKINVX4LVT
*I *543:Q O *C 25.54 28.295 *L 0 *D SDFFRHQX2LVT

*CAP
1 *180:1 0.000257412
2 *180:2 0.000257412
3 *180:3 4.04552e-05
4 *180:4 4.04552e-05
5 *180:5 9.23726e-07
6 *180:6 5.54235e-06
7 *180:7 4.61863e-06

*RES
1 *180:7 *543:Q 8
2 *180:6 *180:7 0.245544
3 *180:5 *180:6 0.0491088
4 *180:4 *180:5 8
5 *180:3 *180:4 2.09521
6 *180:2 *180:3 8
7 *180:1 *180:2 13.685
8 *522:A *180:1 8
*END

*D_NET *181 0.00173243

*CONN
*I *545:AN I *C 31.7 27.835 *L 0.000234 *D NOR2BX1LVT
*I *546:Q O *C 29.575 28.99 *L 0 *D SDFFRHQX1LVT
*I *543:SI I *C 30.81 27.905 *L 0.000435 *D SDFFRHQX2LVT

*CAP
1 *181:0 0.000244787
2 *181:1 0.000311603
3 *181:3 6.68162e-05
4 *181:4 0.000426465
5 *181:5 0.000128149
6 *181:6 0.000426465
7 *181:7 0.000128149

*RES
1 *181:9 *543:SI 8
2 *181:8 *546:Q 8
3 *181:7 *181:9 8
4 *181:6 *181:8 8
5 *181:5 *181:7 6.65129
6 *181:4 *181:6 22.087
7 *181:3 *181:5 8
8 *181:1 *181:4 8
9 *181:1 *181:3 3.55221
10 *181:0 *545:AN 8
11 *181:0 *181:1 13.0138
*END

*D_NET *182 0.000991893

*CONN
*I *548:AN I *C 32.5 27.835 *L 0.000234 *D NOR2BX1LVT
*I *546:SI I *C 33.7 29.545 *L 0.000435 *D SDFFRHQX1LVT
*I *549:Q O *C 30.575 31.81 *L 0 *D SDFFRHQX1LVT

*CAP
1 *182:0 0.000105305
2 *182:1 0.000244787
3 *182:3 0.000139483
4 *182:4 8.09104e-05
5 *182:5 0.000170249
6 *182:6 8.09104e-05
7 *182:7 0.000170249

*RES
1 *182:9 *549:Q 8
2 *182:8 *546:SI 8
3 *182:7 *182:9 8
4 *182:6 *182:8 8
5 *182:5 *182:7 8.81735
6 *182:4 *182:6 4.19042
7 *182:3 *182:5 8
8 *182:1 *182:4 8
9 *182:1 *182:3 7.41543
10 *182:0 *548:AN 8
11 *182:0 *182:1 5.59841
*END

*D_NET *183 0.00200805

*CONN
*I *549:SI I *C 34.7 31.255 *L 0.000435 *D SDFFRHQX1LVT
*I *551:AN I *C 35.9 31.255 *L 0.000234 *D NOR2BX1LVT
*I *552:Q O *C 29.975 32.41 *L 0 *D SDFFRHQX1LVT

*CAP
1 *183:1 2.17608e-05
2 *183:2 2.17608e-05
3 *183:3 0.000211236
4 *183:4 0.000211236
5 *183:5 0.000128706
6 *183:6 0.000374417
7 *183:7 0.000245711
8 *183:9 0.000391067
9 *183:10 0.000391067
10 *183:11 9.23726e-07
11 *183:12 5.54235e-06
12 *183:13 4.61863e-06

*RES
1 *183:13 *552:Q 8
2 *183:12 *183:13 0.245544
3 *183:11 *183:12 0.0491088
4 *183:10 *183:11 8
5 *183:9 *183:10 20.2537
6 *183:7 *183:9 8
7 *183:6 *551:AN 8
8 *183:6 *183:7 13.063
9 *183:5 *183:6 6.8425
10 *183:4 *183:5 8
11 *183:3 *183:4 11.0426
12 *183:2 *183:3 8
13 *183:1 *183:2 1.24548
14 *549:SI *183:1 8
*END

*D_NET *184 0.000794715

*CONN
*I *554:AN I *C 35.3 32.965 *L 0.000234 *D NOR2BX1LVT
*I *552:SI I *C 34.1 32.965 *L 0.000435 *D SDFFRHQX1LVT
*I *555:Q O *C 32.14 36.08 *L 0 *D DFFRHQX1LVT

*CAP
1 *184:1 1.17005e-05
2 *184:2 1.17005e-05
3 *184:3 9.43954e-05
4 *184:4 9.43954e-05
5 *184:5 8.19037e-05
6 *184:6 7.02032e-05
7 *184:7 1.17005e-05
8 *184:8 0.000202276
9 *184:10 0.000202276
10 *184:11 4.61863e-06
11 *184:12 7.0819e-06
12 *184:13 2.46327e-06

*RES
1 *184:13 *555:Q 8
2 *184:12 *184:13 0.130957
3 *184:11 *184:12 0.245544
4 *184:10 *184:11 8
5 *184:8 *184:10 10.4761
6 *184:7 *552:SI 8
7 *184:6 *184:8 8
8 *184:5 *184:7 0.622045
9 *184:5 *184:6 3.73227
10 *184:4 *184:5 8
11 *184:3 *184:4 4.88883
12 *184:2 *184:3 8
13 *184:1 *184:2 0.622045
14 *554:AN *184:1 8
*END

*D_NET *185 0.000846682

*CONN
*I *558:AN I *C 36.1 32.965 *L 0.000234 *D NOR2BX1LVT
*I *556:A0N I *C 29.445 32.7 *L 0.000233 *D OAI2BB1X1LVT
*I *570:Q O *C 28.575 35.23 *L 0 *D SDFFRHQX1LVT

*CAP
1 *185:1 2.34011e-05
2 *185:2 2.34011e-05
3 *185:3 0.000202276
4 *185:4 0.000242731
5 *185:5 7.0819e-06
6 *185:6 4.04552e-05
7 *185:7 1.04689e-05
8 *185:8 4.68021e-05
9 *185:9 3.38699e-06
10 *185:10 4.68021e-05
11 *185:12 9.43954e-05
12 *185:13 9.43954e-05
13 *185:14 9.23726e-07
14 *185:15 5.54235e-06
15 *185:16 4.61863e-06

*RES
1 *185:16 *570:Q 8
2 *185:15 *185:16 0.245544
3 *185:14 *185:15 0.0491088
4 *185:13 *185:14 8
5 *185:12 *185:13 4.88883
6 *185:10 *185:12 8
7 *185:9 *556:A0N 8
8 *185:8 *185:10 2.48818
9 *185:7 *185:9 0.180066
10 *185:6 *185:8 8
11 *185:5 *185:7 0.376501
12 *185:4 *185:6 2.09521
13 *185:4 *185:5 8
14 *185:3 *185:4 10.4761
15 *185:2 *185:3 8
16 *185:1 *185:2 1.24409
17 *558:AN *185:1 8
*END

*D_NET *186 0.000877015

*CONN
*I *570:SI I *C 32.7 34.675 *L 0.000435 *D SDFFRHQX1LVT
*I *575:A I *C 33.7 34.865 *L 0.000233 *D AND2XLLVT
*I *581:Q O *C 27.375 35.83 *L 0 *D SDFFRHQX1LVT

*CAP
1 *186:0 9.40453e-06
2 *186:1 0.000112112
3 *186:3 0.000102707
4 *186:4 5.16041e-05
5 *186:5 0.000274792
6 *186:6 5.16041e-05
7 *186:7 0.000274792

*RES
1 *186:9 *581:Q 8
2 *186:8 *575:A 8
3 *186:7 *186:9 8
4 *186:6 *186:8 8
5 *186:5 *186:7 17.4401
6 *186:4 *186:6 3.27514
7 *186:3 *186:5 8
8 *186:1 *186:4 8
9 *186:1 *186:3 6.73564
10 *186:0 *570:SI 8
11 *186:0 *186:1 0.616758
*END

*D_NET *187 0.00130235

*CONN
*I *581:D I *C 30.9 36.575 *L 0.000435 *D SDFFRHQX1LVT
*I *587:A I *C 28.1 34.865 *L 0.000233 *D AND2XLLVT
*I *631:Q O *C 23.74 32.66 *L 0 *D DFFRHQX1LVT

*CAP
1 *187:0 8.46408e-05
2 *187:1 8.46408e-05
3 *187:3 0.000144491
4 *187:4 0.000144491
5 *187:5 0.000195492
6 *187:7 0.000195492
7 *187:8 0.000226549
8 *187:9 0.000226549

*RES
1 *187:10 *631:Q 8
2 *187:9 *187:10 8
3 *187:8 *187:9 11.7332
4 *187:7 *187:8 8
5 *187:5 *187:7 10.8018
6 *187:5 *587:A 8
7 *187:4 *187:5 8
8 *187:3 *187:4 9.1704
9 *187:1 *187:3 8
10 *187:0 *581:D 8
11 *187:0 *187:1 5.55082
*END

*D_NET *188 0.00151682

*CONN
*I *594:AN I *C 18.5 31.255 *L 0.000234 *D NAND3BXLLVT
*I *662:B I *C 17.5 30.875 *L 0.000433 *D NAND2X1LVT
*I *652:AN I *C 16.3 29.545 *L 0.000234 *D NAND3BX1LVT
*I *615:B I *C 17.3 33.155 *L 0.000233 *D OR2X1LVT
*I *646:Q O *C 18.79 36.235 *L 0 *D DFFRHQX4LVT
*I *616:A I *C 18.215 34.65 *L 0.000879 *D NOR2X2LVT

*CAP
1 *188:2 2.34615e-05
2 *188:3 2.34615e-05
3 *188:4 7.55664e-05
4 *188:5 7.55664e-05
5 *188:6 9.38462e-05
6 *188:7 0.000176511
7 *188:8 1.17308e-05
8 *188:9 0.000121366
9 *188:10 1.17005e-05
10 *188:12 2.69701e-05
11 *188:13 8.19037e-05
12 *188:14 1.17005e-05
13 *188:16 5.85026e-05
14 *188:17 8.19037e-05
15 *188:19 5.85026e-05
16 *188:21 6.74253e-05
17 *188:22 0.000161821
18 *188:23 9.43954e-05
19 *188:24 8.89856e-05
20 *188:25 3.3562e-05
21 *188:26 9.14488e-05
22 *188:27 3.87965e-05
23 *188:28 2.46327e-06
24 *188:29 5.23445e-06

*RES
1 *188:29 *616:A 8
2 *188:28 *646:Q 8
3 *188:27 *188:29 0.278283
4 *188:26 *188:28 0.130957
5 *188:25 *188:27 1.78429
6 *188:24 *188:26 4.73082
7 *188:23 *188:25 8
8 *188:22 *188:24 8
9 *188:22 *188:23 4.88883
10 *188:21 *188:22 3.49202
11 *188:19 *188:21 8
12 *188:17 *615:B 8
13 *188:16 *188:19 3.11023
14 *188:14 *652:AN 8
15 *188:13 *188:17 4.35432
16 *188:12 *188:16 8
17 *188:11 *662:B 8
18 *188:10 *188:14 0.622045
19 *188:9 *188:13 8
20 *188:9 *188:12 1.39681
21 *188:8 *188:11 8
22 *188:7 *188:10 8
23 *188:7 *188:9 4.88883
24 *188:6 *188:8 0.685422
25 *188:6 *188:7 4.79796
26 *188:5 *188:6 8
27 *188:4 *188:5 4.95647
28 *188:3 *188:4 8
29 *188:2 *188:3 1.37084
30 *188:1 *188:2 8
31 *594:AN *188:1 8
*END

*D_NET *189 0.00285557

*CONN
*I *350:Y O *C 28.53 32.53 *L 0 *D INVX3LVT
*I *366:C I *C 15.325 24.285 *L 0.00358 *D NOR3X8LVT

*CAP
1 *189:0 0.0006624
2 *189:1 0.0006624
3 *189:3 0.000765387
4 *189:4 0.000765387

*RES
1 *189:5 *366:C 8
2 *189:4 *189:5 8
3 *189:3 *189:4 38.3269
4 *189:1 *189:3 8
5 *189:0 *350:Y 8
6 *189:0 *189:1 33.4805
*END

*D_NET *190 0.000702576

*CONN
*I *468:AN I *C 25.7 24.415 *L 0.000234 *D NAND2BX1LVT
*I *391:A I *C 22.7 27.645 *L 0.000436 *D INVX1LVT
*I *621:Q O *C 22.54 25.82 *L 0 *D DFFRHQX1LVT
*I *595:A I *C 23.1 27.645 *L 0.000234 *D NAND2XLLVT
*I *476:A I *C 22.3 24.605 *L 0.000233 *D AND2XLLVT
*I *384:A0 I *C 22.94 29.48 *L 0.00179 *D AOI21X4LVT

*CAP
1 *190:0 0.000117005
2 *190:1 0.000124087
3 *190:3 7.0819e-06
4 *190:5 2.69701e-06
5 *190:6 2.69701e-06
6 *190:7 7.48218e-05
7 *190:8 9.82228e-05
8 *190:10 2.34011e-05
9 *190:11 3.77582e-05
10 *190:12 2.96671e-05
11 *190:13 3.77582e-05
12 *190:14 2.96671e-05
13 *190:15 1.57033e-05
14 *190:17 1.57033e-05
15 *190:20 4.31522e-05
16 *190:21 4.31522e-05

*RES
1 *190:22 *384:A0 8
2 *190:21 *190:22 8
3 *190:20 *190:21 2.23489
4 *190:17 *190:20 8
5 *190:16 *476:A 8
6 *190:15 *595:A 8
7 *190:15 *190:17 0.83485
8 *190:14 *190:16 8
9 *190:13 *190:15 8
10 *190:12 *190:14 1.53649
11 *190:11 *190:13 1.95553
12 *190:10 *190:12 8
13 *190:8 *190:11 8
14 *190:8 *190:10 1.24409
15 *190:7 *621:Q 8
16 *190:7 *190:8 3.97782
17 *190:6 *190:7 8
18 *190:5 *190:6 0.139681
19 *190:3 *190:5 8
20 *190:1 *391:A 8
21 *190:1 *190:3 0.376501
22 *190:0 *468:AN 8
23 *190:0 *190:1 6.22045
*END

*D_NET *191 0.00222659

*CONN
*I *508:B I *C 23.5 22.895 *L 0.000234 *D OR2XLLVT
*I *507:A I *C 24.3 22.705 *L 0.000436 *D NAND2X1LVT
*I *625:B0 I *C 23.365 22.665 *L 0.000884 *D AOI22X2LVT
*I *505:B I *C 23.145 21.035 *L 0.000467 *D XNOR2X1LVT
*I *503:A0 I *C 25.3 20.615 *L 0.000436 *D AOI21X1LVT
*I *427:A I *C 23.41 19.28 *L 0.000884 *D NAND2X2LVT
*I *589:A I *C 27.7 22.895 *L 0.000234 *D NAND2XLLVT
*I *620:Q O *C 19.14 17.88 *L 0 *D DFFRHQX1LVT

*CAP
1 *191:0 1.24026e-05
2 *191:1 6.68252e-05
3 *191:2 0.000109012
4 *191:3 5.71766e-05
5 *191:4 9.64856e-06
6 *191:6 0.000124026
7 *191:7 1.24026e-05
8 *191:8 2.61106e-06
9 *191:9 8.25488e-05
10 *191:10 2.74162e-05
11 *191:12 1.24026e-05
12 *191:13 2.61106e-06
13 *191:14 8.25488e-05
14 *191:15 7.86179e-06
15 *191:16 1.42942e-05
16 *191:19 7.14708e-05
17 *191:20 0.000243001
18 *191:22 6.3609e-05
19 *191:23 8.71443e-05
20 *191:24 0.000228707
21 *191:26 0.000178532
22 *191:30 9.13873e-05
23 *191:32 0.000319474
24 *191:33 0.000319474

*RES
1 *191:34 *620:Q 8
2 *191:33 *191:34 8
3 *191:32 *191:33 15.6093
4 *191:30 *191:32 8
5 *191:27 *589:A 8
6 *191:26 *191:30 4.58349
7 *191:26 *427:A 8
8 *191:25 *503:A0 8
9 *191:24 *191:27 8
10 *191:23 *191:26 4.37069
11 *191:22 *191:25 8
12 *191:20 *191:24 11.1745
13 *191:19 *191:23 8
14 *191:19 *191:22 3.1079
15 *191:18 *505:B 8
16 *191:16 *191:20 0.698404
17 *191:15 *191:19 0.384122
18 *191:14 *191:18 8
19 *191:13 *625:B0 8
20 *191:12 *191:16 8
21 *191:10 *191:15 8
22 *191:9 *191:14 4.03328
23 *191:8 *191:13 0.130957
24 *191:7 *191:12 0.622045
25 *191:7 *507:A 8
26 *191:6 *191:10 1.37505
27 *191:6 *191:9 8
28 *191:4 *191:8 8
29 *191:3 *191:7 8
30 *191:2 *191:6 4.84541
31 *191:2 *508:B 8
32 *191:1 *191:4 0.471422
33 *191:1 *191:3 2.79361
34 *191:0 *191:2 0.622045
35 *191:0 *191:1 8
*END

*D_NET *192 0.00203468

*CONN
*I *495:A I *C 26.1 19.285 *L 0.000436 *D NAND2X1LVT
*I *626:B0 I *C 25.565 17.615 *L 0.000884 *D AOI22X2LVT
*I *493:B I *C 26.745 17.615 *L 0.000467 *D XNOR2X1LVT
*I *496:B I *C 26.7 19.475 *L 0.000234 *D OR2XLLVT
*I *491:A0 I *C 27.5 19.665 *L 0.000436 *D AOI21X1LVT
*I *617:Q O *C 29.34 18.98 *L 0 *D DFFRHQX1LVT
*I *585:A I *C 30.5 22.895 *L 0.000234 *D NAND2XLLVT
*I *364:A I *C 29.61 21 *L 0.000884 *D NAND2X2LVT

*CAP
1 *192:0 7.18079e-05
2 *192:1 0.000110915
3 *192:3 3.91067e-05
4 *192:4 0.000102841
5 *192:6 1.41638e-05
6 *192:7 0.000102841
7 *192:8 2.46327e-06
8 *192:9 1.17005e-05
9 *192:12 5.09061e-05
10 *192:13 0.000145302
11 *192:14 9.43954e-05
12 *192:15 1.17005e-05
13 *192:16 3.04829e-05
14 *192:17 1.17005e-05
15 *192:18 3.04829e-05
16 *192:21 8.09104e-05
17 *192:22 0.000191488
18 *192:23 0.000110577
19 *192:24 0.000180127
20 *192:26 0.000293129
21 *192:28 0.000113002
22 *192:30 0.00011732
23 *192:31 0.00011732

*RES
1 *192:32 *364:A 8
2 *192:31 *192:32 8
3 *192:30 *192:31 6.07611
4 *192:28 *192:30 8
5 *192:26 *585:A 8
6 *192:26 *192:28 6.00765
7 *192:25 *617:Q 8
8 *192:24 *192:26 9.57622
9 *192:23 *192:25 8
10 *192:22 *192:24 8
11 *192:22 *192:23 5.72691
12 *192:21 *192:22 4.19042
13 *192:18 *192:21 8
14 *192:17 *491:A0 8
15 *192:16 *496:B 8
16 *192:16 *192:18 1.62059
17 *192:15 *192:17 0.622045
18 *192:14 *192:16 8
19 *192:13 *192:15 8
20 *192:13 *192:14 4.88883
21 *192:12 *192:13 2.63647
22 *192:9 *192:12 8
23 *192:8 *493:B 8
24 *192:7 *626:B0 8
25 *192:6 *192:9 0.622045
26 *192:6 *192:8 0.130957
27 *192:4 *192:7 5.46745
28 *192:3 *192:6 8
29 *192:2 *495:A 8
30 *192:1 *192:4 8
31 *192:1 *192:3 2.02537
32 *192:0 *192:2 8
33 *192:0 *192:1 3.719
*END

*D_NET *193 0.00222417

*CONN
*I *411:A I *C 35.965 17.83 *L 0.000233 *D AND2X1LVT
*I *424:A I *C 37.7 19.285 *L 0.000436 *D NAND2X1LVT
*I *426:B0 I *C 34.94 17.435 *L 0.00178 *D AOI21X4LVT
*I *439:A I *C 30.9 16.055 *L 0.000436 *D INVX1LVT
*I *618:Q O *C 31.74 15.56 *L 0 *D DFFRHQX1LVT
*I *484:A I *C 32.05 17.54 *L 0.000233 *D OR2X1LVT
*I *591:A I *C 31.1 22.705 *L 0.000436 *D NAND2X1LVT

*CAP
1 *193:0 9.0761e-05
2 *193:1 0.000171881
3 *193:2 9.0761e-05
4 *193:3 0.000129026
5 *193:4 0.000113346
6 *193:6 8.45727e-05
7 *193:8 7.04906e-05
8 *193:9 8.45727e-05
9 *193:11 0.000109037
10 *193:13 9.93945e-05
11 *193:14 9.64275e-06
12 *193:15 9.70939e-05
13 *193:17 9.70939e-05
14 *193:18 7.30845e-05
15 *193:19 7.30845e-05
16 *193:21 8.69786e-05
17 *193:22 8.69786e-05
18 *193:23 0.00031807
19 *193:24 0.00031807
20 *193:26 1.01138e-05
21 *193:27 1.01138e-05

*RES
1 *193:28 *591:A 8
2 *193:27 *193:28 8
3 *193:26 *193:27 0.523803
4 *193:24 *193:26 8
5 *193:23 *484:A 8
6 *193:23 *193:24 16.9098
7 *193:22 *193:23 8
8 *193:21 *193:22 4.5047
9 *193:19 *193:21 8
10 *193:18 *618:Q 8
11 *193:18 *193:19 4.47296
12 *193:17 *193:18 8
13 *193:15 *193:17 5.85804
14 *193:14 *439:A 8
15 *193:13 *193:15 8
16 *193:11 *193:14 0.635832
17 *193:11 *193:13 6.55396
18 *193:9 *426:B0 8
19 *193:8 *193:11 8
20 *193:7 *424:A 8
21 *193:6 *193:9 5.98904
22 *193:4 *193:8 4.91013
23 *193:4 *193:7 8
24 *193:3 *193:6 8
25 *193:2 *411:A 8
26 *193:1 *193:4 3.01906
27 *193:1 *193:3 9.08966
28 *193:0 *193:2 6.42727
29 *193:0 *193:1 8
*END

*D_NET *194 0.00257476

*CONN
*I *624:Q O *C 33.14 14.46 *L 0 *D DFFRHQX1LVT
*I *433:A I *C 32.1 12.635 *L 0.000436 *D INVX1LVT
*I *572:A0N I *C 32.245 22.44 *L 0.000233 *D OAI2BB1X1LVT
*I *512:A I *C 33.415 10.775 *L 0.000234 *D XNOR2X1LVT
*I *510:A1 I *C 35.3 12.635 *L 0.000433 *D AOI21X1LVT
*I *515:A I *C 36.545 12.305 *L 0.000233 *D OR2XLLVT
*I *630:B0 I *C 34.565 12.405 *L 0.000884 *D AOI22X2LVT
*I *514:B I *C 36.9 13.775 *L 0.000433 *D NAND2X1LVT

*CAP
1 *194:0 0.000174328
2 *194:1 0.00019336
3 *194:3 1.90326e-05
4 *194:4 0.000109037
5 *194:6 0.000407473
6 *194:7 0.000266783
7 *194:8 0.000407473
8 *194:10 0.000157746
9 *194:12 0.000181223
10 *194:13 7.72338e-05
11 *194:14 0.00010399
12 *194:15 1.63185e-05
13 *194:17 4.945e-06
14 *194:18 1.13735e-05
15 *194:20 3.6686e-05
16 *194:22 9.31966e-05
17 *194:23 8.20854e-05
18 *194:24 7.96145e-05
19 *194:25 2.55748e-05
20 *194:27 7.96145e-05
21 *194:28 2.38362e-05
22 *194:31 2.38362e-05

*RES
1 *194:31 *514:B 8
2 *194:28 *194:31 1.68797
3 *194:27 *630:B0 8
4 *194:26 *515:A 8
5 *194:25 *194:28 8
6 *194:24 *194:27 5.24969
7 *194:23 *194:26 8
8 *194:23 *194:25 1.8017
9 *194:22 *194:24 8
10 *194:22 *194:23 3.84994
11 *194:20 *194:22 2.21341
12 *194:18 *510:A1 8
13 *194:17 *194:20 8
14 *194:16 *512:A 8
15 *194:15 *194:18 0.749956
16 *194:15 *194:17 0.326068
17 *194:14 *194:16 8
18 *194:13 *194:15 8
19 *194:12 *194:14 6.27409
20 *194:12 *194:13 4.6598
21 *194:10 *194:12 8
22 *194:8 *572:A0N 8
23 *194:7 *194:10 10.4016
24 *194:7 *433:A 8
25 *194:6 *194:8 22.2504
26 *194:4 *194:7 7.1898
27 *194:3 *194:6 8
28 *194:2 *624:Q 8
29 *194:1 *194:4 8
30 *194:1 *194:3 1.14831
31 *194:0 *194:2 8
32 *194:0 *194:1 10.5178
*END

*D_NET *195 0.00105771

*CONN
*I *501:B I *C 32.3 10.355 *L 0.000433 *D NAND2X1LVT
*I *497:A0N I *C 30.445 8.76 *L 0.000233 *D OAI2BB1X1LVT
*I *370:AN I *C 32.7 9.025 *L 0.000434 *D NAND2BX4LVT
*I *413:A I *C 30.1 12.445 *L 0.000233 *D BUFX2LVT
*I *623:Q O *C 29.54 14.46 *L 0 *D DFFRHQX1LVT

*CAP
1 *195:0 5.26643e-05
2 *195:1 6.57685e-05
3 *195:3 0.000102335
4 *195:4 1.31043e-05
5 *195:5 0.000121367
6 *195:6 2.20668e-05
7 *195:8 1.90326e-05
8 *195:9 2.20668e-05
9 *195:11 0.000156015
10 *195:13 0.000156015
11 *195:15 6.39937e-05
12 *195:17 6.39937e-05
13 *195:18 9.96418e-05
14 *195:19 9.96418e-05

*RES
1 *195:19 *623:Q 8
2 *195:18 *195:19 6.57027
3 *195:17 *195:18 8
4 *195:15 *195:17 3.86098
5 *195:13 *413:A 8
6 *195:13 *195:15 8
7 *195:12 *370:AN 8
8 *195:11 *195:13 10.2874
9 *195:9 *195:12 8
10 *195:8 *195:11 8
11 *195:7 *497:A0N 8
12 *195:6 *195:9 1.33137
13 *195:5 *195:8 1.14831
14 *195:5 *195:7 8
15 *195:4 *195:6 8
16 *195:3 *195:5 6.17424
17 *195:1 *195:4 0.86408
18 *195:1 *195:3 8
19 *195:0 *501:B 8
20 *195:0 *195:1 3.47262
*END

*D_NET *196 0.000670683

*CONN
*I *416:A I *C 24.78 12.48 *L 0.00267 *D INVX6LVT
*I *409:A I *C 24.7 16.055 *L 0.000879 *D CLKBUFX6LVT
*I *419:A I *C 23.1 12.255 *L 0.000233 *D AND2XLLVT
*I *622:Q O *C 18.79 14.305 *L 0 *D DFFRHQX4LVT

*CAP
1 *196:0 7.34333e-05
2 *196:1 9.5933e-05
3 *196:3 2.24998e-05
4 *196:4 7.28204e-05
5 *196:5 3.53069e-05
6 *196:6 7.28204e-05
7 *196:7 8.77155e-05
8 *196:10 5.24086e-05
9 *196:13 7.88728e-05
10 *196:14 7.88728e-05

*RES
1 *196:14 *622:Q 8
2 *196:13 *196:14 5.20078
3 *196:10 *196:13 8
4 *196:9 *419:A 8
5 *196:8 *409:A 8
6 *196:7 *196:10 3.16201
7 *196:7 *196:9 8
8 *196:6 *196:8 8
9 *196:5 *196:7 2.1302
10 *196:4 *196:6 4.39353
11 *196:3 *196:5 8
12 *196:1 *196:4 8
13 *196:1 *196:3 1.48361
14 *196:0 *416:A 8
15 *196:0 *196:1 4.84211
*END

*D_NET *197 0.00114809

*CONN
*I *466:B I *C 15.9 12.635 *L 0.000876 *D NAND2X2LVT
*I *418:A I *C 15.3 10.545 *L 0.00133 *D INVX3LVT
*I *619:Q O *C 14.19 17.725 *L 0 *D DFFRHQX4LVT
*I *417:A I *C 17.9 15.865 *L 0.000233 *D BUFX2LVT

*CAP
1 *197:0 3.28365e-05
2 *197:1 3.77619e-05
3 *197:3 4.92547e-06
4 *197:4 6.58317e-05
5 *197:6 0.000433083
6 *197:7 6.58317e-05
7 *197:8 0.00044054
8 *197:10 2.99135e-05
9 *197:11 7.45721e-06
10 *197:12 2.99135e-05

*RES
1 *197:14 *417:A 8
2 *197:12 *197:14 8
3 *197:11 *619:Q 8
4 *197:10 *197:12 1.74783
5 *197:8 *197:11 0.489125
6 *197:8 *197:10 8
7 *197:7 *418:A 8
8 *197:6 *197:8 28.4031
9 *197:4 *197:7 4.3173
10 *197:3 *197:6 8
11 *197:2 *466:B 8
12 *197:1 *197:4 8
13 *197:1 *197:3 0.298673
14 *197:0 *197:2 8
15 *197:0 *197:1 1.99115
*END

*D_NET *198 0.0014291

*CONN
*I *657:A I *C 16.765 32.735 *L 0.000233 *D OR3XLLVT
*I *597:A I *C 15.9 34.485 *L 0.000234 *D NAND2XLLVT
*I *615:A I *C 17.65 33 *L 0.000233 *D OR2X1LVT
*I *594:B I *C 18.3 31.255 *L 0.000234 *D NAND3BXLLVT
*I *636:Q O *C 13.73 36.655 *L 0 *D DFFRX1LVT

*CAP
1 *198:1 3.21734e-06
2 *198:2 5.19724e-06
3 *198:3 1.9799e-06
4 *198:4 1.03208e-05
5 *198:5 1.03208e-05
6 *198:6 0.000202573
7 *198:7 0.000225975
8 *198:8 4.04552e-05
9 *198:9 2.34011e-05
10 *198:10 0.000232205
11 *198:11 1.34851e-05
12 *198:12 1.38559e-05
13 *198:13 0.000226942
14 *198:14 1.34851e-05
15 *198:15 1.6935e-05
16 *198:16 9.4458e-06
17 *198:17 3.51923e-05
18 *198:19 3.07909e-06
19 *198:20 9.4458e-06
20 *198:21 0.000151071
21 *198:25 0.000151071
22 *198:26 9.2782e-06
23 *198:27 9.2782e-06
24 *198:28 3.9598e-06
25 *198:29 5.44473e-06
26 *198:30 1.48493e-06

*RES
1 *198:30 *636:Q 8
2 *198:29 *198:30 0.0973828
3 *198:28 *198:29 0.259688
4 *198:27 *198:28 8
5 *198:26 *198:27 0.653563
6 *198:25 *198:26 8
7 *198:21 *198:25 9.90873
8 *198:20 *594:B 8
9 *198:19 *615:A 8
10 *198:18 *597:A 8
11 *198:17 *198:21 8
12 *198:16 *198:20 0.619558
13 *198:15 *198:19 0.163696
14 *198:14 *198:18 8
15 *198:13 *198:17 2.05627
16 *198:13 *198:16 8
17 *198:12 *198:15 0.736633
18 *198:11 *198:14 0.698404
19 *198:10 *198:13 10.3982
20 *198:10 *198:12 8
21 *198:9 *198:11 8
22 *198:8 *198:10 2.09521
23 *198:7 *198:9 1.24409
24 *198:7 *198:8 8
25 *198:6 *198:7 11.1783
26 *198:5 *198:6 8
27 *198:4 *198:5 0.655028
28 *198:3 *198:4 8
29 *198:2 *198:3 0.129844
30 *198:1 *198:2 0.210996
31 *657:A *198:1 8
*END

*D_NET *199 0.000763224

*CONN
*I *650:C I *C 12.7 34.485 *L 0.000432 *D NAND3BX1LVT
*I *644:B I *C 10.9 34.865 *L 0.000234 *D MXI2XLLVT
*I *635:Q O *C 9 36.685 *L 0 *D DFFRXLLVT

*CAP
1 *199:1 2.98288e-06
2 *199:2 2.58517e-05
3 *199:3 2.28688e-05
4 *199:4 8.21154e-05
5 *199:5 8.21154e-05
6 *199:6 0.000141666
7 *199:7 0.000122775
8 *199:8 1.88916e-05
9 *199:9 0.000111338
10 *199:10 1.17308e-05
11 *199:11 0.000111338
12 *199:12 1.17308e-05
13 *199:13 3.9598e-06
14 *199:15 8.90955e-06
15 *199:17 4.94975e-06

*RES
1 *199:17 *635:Q 8
2 *199:15 *199:17 0.324609
3 *199:14 *644:B 8
4 *199:13 *199:15 0.259688
5 *199:12 *199:14 8
6 *199:11 *199:13 8
7 *199:10 *199:12 0.685422
8 *199:9 *199:11 7.84276
9 *199:8 *199:10 8
10 *199:7 *199:9 8
11 *199:6 *199:8 1.23912
12 *199:6 *199:7 8.05286
13 *199:5 *199:6 8
14 *199:4 *199:5 4.79796
15 *199:3 *199:4 8
16 *199:2 *199:3 1.49998
17 *199:1 *199:2 0.19565
18 *650:C *199:1 8
*END

*D_NET *200 0.000938183

*CONN
*I *658:A I *C 12.21 34.68 *L 0.000884 *D NAND2X2LVT
*I *655:AN I *C 10.5 31.255 *L 0.000234 *D NAND2BX1LVT
*I *639:A I *C 11.9 32.965 *L 0.000436 *D NAND2X1LVT
*I *633:Q O *C 10.74 31.56 *L 0 *D DFFRHQX1LVT
*I *407:A I *C 9.5 29.355 *L 0.000233 *D AND2XLLVT

*CAP
1 *200:0 2.48574e-07
2 *200:1 2.48574e-07
3 *200:3 5.3375e-05
4 *200:4 5.3375e-05
5 *200:5 8.50122e-05
6 *200:7 8.50122e-05
7 *200:8 3.51923e-05
8 *200:9 3.51923e-05
9 *200:10 6.98492e-05
10 *200:12 6.98492e-05
11 *200:13 5.63077e-05
12 *200:14 5.63077e-05
13 *200:15 2.83374e-05
14 *200:17 2.83374e-05
15 *200:18 0.000140769
16 *200:19 0.000140769

*RES
1 *200:20 *407:A 8
2 *200:19 *200:20 8
3 *200:18 *200:19 8.22507
4 *200:17 *200:18 8
5 *200:15 *200:17 1.85867
6 *200:15 *633:Q 8
7 *200:14 *200:15 8
8 *200:13 *200:14 3.29003
9 *200:12 *200:13 8
10 *200:10 *200:12 4.58147
11 *200:10 *639:A 8
12 *200:9 *200:10 8
13 *200:8 *200:9 2.05627
14 *200:7 *200:8 8
15 *200:5 *200:7 5.57603
16 *200:5 *655:AN 8
17 *200:4 *200:5 8
18 *200:3 *200:4 3.11867
19 *200:1 *200:3 8
20 *200:0 *658:A 8
21 *200:0 *200:1 0.0163042
*END

*D_NET *201 0.000823908

*CONN
*I *647:A0N I *C 17.045 34.94 *L 0.000233 *D OAI2BB1X1LVT
*I *657:B I *C 16.3 33.155 *L 0.000233 *D OR3XLLVT
*I *645:Q O *C 18.14 32.66 *L 0 *D DFFRHQX1LVT
*I *663:A I *C 15.34 32.7 *L 0.000323 *D CLKAND2X2LVT

*CAP
1 *201:1 2.72236e-06
2 *201:2 2.72236e-05
3 *201:3 2.45013e-05
4 *201:4 9.28873e-05
5 *201:5 9.28873e-05
6 *201:6 4.70226e-05
7 *201:7 0.000160584
8 *201:8 1.03208e-05
9 *201:9 0.000125262
10 *201:10 1.03208e-05
11 *201:11 1.34851e-05
12 *201:12 1.17005e-05
13 *201:14 1.34851e-05
14 *201:15 6.74253e-05
15 *201:17 4.61863e-06
16 *201:18 6.74253e-05
17 *201:19 7.0819e-06
18 *201:20 1.87824e-05
19 *201:21 2.46327e-06
20 *201:22 2.12457e-05
21 *201:24 2.46327e-06

*RES
1 *201:24 *663:A 8
2 *201:22 *201:24 0.130957
3 *201:21 *645:Q 8
4 *201:20 *201:22 0.998546
5 *201:19 *201:21 0.130957
6 *201:18 *201:20 8
7 *201:17 *201:19 0.245544
8 *201:15 *201:18 3.49202
9 *201:14 *201:17 8
10 *201:13 *657:B 8
11 *201:12 *201:15 8
12 *201:11 *201:14 0.698404
13 *201:10 *201:13 8
14 *201:9 *201:12 0.622045
15 *201:9 *201:11 8
16 *201:8 *201:10 0.655028
17 *201:7 *201:9 6.21252
18 *201:7 *201:8 8
19 *201:6 *201:7 3.08379
20 *201:5 *201:6 8
21 *201:4 *201:5 5.89526
22 *201:3 *201:4 8
23 *201:2 *201:3 1.60682
24 *201:1 *201:2 0.178535
25 *647:A0N *201:1 8
*END

*D_NET *202 0.000475502

*CONN
*I *526:A I *C 19.7 20.805 *L 0.000436 *D INVX1LVT
*I *609:Q O *C 15.94 18.98 *L 0 *D DFFRHQX1LVT

*CAP
1 *202:2 0.000211154
2 *202:3 0.000211154
3 *202:4 2.46088e-05
4 *202:5 2.65974e-05
5 *202:6 1.98859e-06

*RES
1 *202:6 *609:Q 8
2 *202:5 *202:6 0.130433
3 *202:4 *202:5 1.61411
4 *202:3 *202:4 8
5 *202:2 *202:3 12.3376
6 *202:1 *202:2 8
7 *526:A *202:1 8
*END

*D_NET *203 0.000498964

*CONN
*I *525:A I *C 19.5 19.475 *L 0.000436 *D INVX1LVT
*I *610:Q O *C 9.94 21.3 *L 0 *D DFFRHQX1LVT

*CAP
1 *203:1 9.4458e-06
2 *203:2 9.4458e-06
3 *203:3 0.000222885
4 *203:4 0.000222885
5 *203:5 1.5163e-05
6 *203:6 1.71516e-05
7 *203:7 1.98859e-06

*RES
1 *203:7 *610:Q 8
2 *203:6 *203:7 0.130433
3 *203:5 *203:6 0.994554
4 *203:4 *203:5 8
5 *203:3 *203:4 13.023
6 *203:2 *203:3 8
7 *203:1 *203:2 0.619558
8 *525:A *203:1 8
*END

*D_NET *204 0.000315094

*CONN
*I *517:A I *C 12.5 17.385 *L 0.000884 *D INVX2LVT
*I *607:Q O *C 8.94 17.88 *L 0 *D DFFRHQX1LVT

*CAP
1 *204:2 1.09455e-05
2 *204:3 1.09455e-05
3 *204:4 6.58317e-05
4 *204:5 6.58317e-05
5 *204:6 6.56729e-05
6 *204:7 6.56729e-05
7 *204:8 1.31168e-05
8 *204:9 1.50967e-05
9 *204:10 1.9799e-06

*RES
1 *204:10 *607:Q 8
2 *204:9 *204:10 0.129844
3 *204:8 *204:9 0.860215
4 *204:7 *204:8 8
5 *204:6 *204:7 3.98231
6 *204:5 *204:6 8
7 *204:4 *204:5 4.3173
8 *204:3 *204:4 8
9 *204:2 *204:3 0.663718
10 *204:1 *204:2 8
11 *517:A *204:1 8
*END

*D_NET *205 0.00222444

*CONN
*I *667:A I *C 34.7 12.635 *L 0.000436 *D INVX1LVT
*I *613:Q O *C 13.74 15.56 *L 0 *D DFFRHQX1LVT

*CAP
1 *205:0 2.44778e-05
2 *205:1 2.44778e-05
3 *205:3 0.00108774
4 *205:4 0.00108774

*RES
1 *205:5 *613:Q 8
2 *205:4 *205:5 8
3 *205:3 *205:4 65.717
4 *205:1 *205:3 8
5 *205:0 *667:A 8
6 *205:0 *205:1 1.61404
*END

*D_NET *206 0.00243938

*CONN
*I *369:A I *C 29.3 9.215 *L 0.000884 *D INVX2LVT
*I *370:B I *C 31.6525 8.915 *L 0.00178 *D NAND2BX4LVT
*I *612:Q O *C 9.79 8.875 *L 0 *D DFFRHQX4LVT

*CAP
1 *206:0 1.4835e-05
2 *206:1 1.6813e-05
3 *206:3 1.978e-06
4 *206:4 0.00012978
5 *206:5 0.00107309
6 *206:6 0.00012978
7 *206:7 0.00107309

*RES
1 *206:9 *612:Q 8
2 *206:8 *370:B 8
3 *206:7 *206:9 8
4 *206:6 *206:8 8
5 *206:5 *206:7 64.8657
6 *206:4 *206:6 7.83013
7 *206:3 *206:5 8
8 *206:1 *206:4 8
9 *206:1 *206:3 0.130427
10 *206:0 *369:A 8
11 *206:0 *206:1 0.978203
*END

*D_NET *207 0.00164871

*CONN
*I *436:A I *C 23.34 10.595 *L 0.00179 *D NAND2X4LVT
*I *611:Q O *C 9.19 10.885 *L 0 *D DFFRHQX4LVT
*I *446:B I *C 24.1 10.355 *L 0.000433 *D NAND2X1LVT
*I *445:A I *C 24.1 9.215 *L 0.000884 *D INVX2LVT

*CAP
1 *207:0 1.43405e-05
2 *207:1 7.26915e-05
3 *207:3 5.8351e-05
4 *207:4 0.000700342
5 *207:5 1.98601e-05
6 *207:6 0.000700342
7 *207:7 1.98601e-05
8 *207:9 9.3955e-06
9 *207:11 9.3955e-06
10 *207:13 2.20668e-05
11 *207:14 2.20668e-05

*RES
1 *207:15 *445:A 8
2 *207:14 *207:15 8
3 *207:13 *207:14 1.33137
4 *207:11 *207:13 8
5 *207:9 *446:B 8
6 *207:9 *207:11 0.619529
7 *207:8 *611:Q 8
8 *207:7 *207:9 8
9 *207:6 *207:8 8
10 *207:5 *207:7 1.19824
11 *207:4 *207:6 42.3695
12 *207:3 *207:5 8
13 *207:1 *207:4 8
14 *207:1 *207:3 3.8476
15 *207:0 *436:A 8
16 *207:0 *207:1 0.945597
*END

*D_NET *208 0.000645451

*CONN
*I *387:A I *C 16.34 9.165 *L 0.00179 *D NAND2X4LVT
*I *386:A I *C 14.7 10.735 *L 0.000436 *D NAND2X1LVT
*I *385:A I *C 13.7 12.635 *L 0.00133 *D INVX3LVT
*I *614:Q O *C 9.19 12.295 *L 0 *D DFFRHQX4LVT

*CAP
1 *208:0 2.47488e-07
2 *208:1 2.47488e-07
3 *208:3 3.88565e-05
4 *208:4 3.88565e-05
5 *208:5 7.52362e-05
6 *208:6 7.52362e-05
7 *208:8 2.1891e-05
8 *208:9 2.1891e-05
9 *208:10 2.45013e-05
10 *208:11 2.45013e-05
11 *208:13 0.000161993
12 *208:14 0.000161993

*RES
1 *208:15 *614:Q 8
2 *208:14 *208:15 8
3 *208:13 *208:14 9.82302
4 *208:11 *208:13 8
5 *208:10 *385:A 8
6 *208:10 *208:11 1.60682
7 *208:9 *208:10 8
8 *208:8 *208:9 1.32744
9 *208:6 *208:8 8
10 *208:5 *386:A 8
11 *208:5 *208:6 4.93406
12 *208:4 *208:5 8
13 *208:3 *208:4 2.3562
14 *208:1 *208:3 8
15 *208:0 *387:A 8
16 *208:0 *208:1 0.0162305
*END

*D_NET *209 0.000763538

*CONN
*I *664:A I *C 22.87 15.84 *L 0.00267 *D NAND2X6LVT
*I *656:A0 I *C 19.3 15.865 *L 0.000234 *D OAI21XLLVT
*I *608:Q O *C 9.19 15.715 *L 0 *D DFFRHQX4LVT

*CAP
1 *209:1 4.4505e-06
2 *209:2 4.69775e-06
3 *209:3 2.4725e-07
4 *209:4 5.49033e-05
5 *209:5 5.49033e-05
6 *209:6 7.52362e-05
7 *209:7 8.46408e-05
8 *209:8 9.40453e-06
9 *209:9 0.000229855
10 *209:11 0.000229855
11 *209:12 5.69222e-06
12 *209:13 7.67212e-06
13 *209:14 1.9799e-06

*RES
1 *209:14 *608:Q 8
2 *209:13 *209:14 0.129844
3 *209:12 *209:13 0.373301
4 *209:11 *209:12 8
5 *209:9 *209:11 13.9381
6 *209:8 *656:A0 8
7 *209:7 *209:9 8
8 *209:7 *209:8 0.616758
9 *209:6 *209:7 4.93406
10 *209:5 *209:6 8
11 *209:4 *209:5 3.32253
12 *209:3 *209:4 8
13 *209:2 *209:3 0.0163034
14 *209:1 *209:2 0.293461
15 *664:A *209:1 8
*END

*D_NET *211 0.000558549

*CONN
*I *663:B I *C 14.9 32.965 *L 0.00032 *D CLKAND2X2LVT
*I *637:A0 I *C 13.825 34.54 *L 0.000436 *D OAI21X1LVT
*I *636:QN O *C 13.1 36.765 *L 0 *D DFFRX1LVT

*CAP
1 *211:1 2.34011e-05
2 *211:2 2.34011e-05
3 *211:3 8.73783e-05
4 *211:4 8.73783e-05
5 *211:5 1.88916e-05
6 *211:6 8.49916e-05
7 *211:7 6.61e-05
8 *211:9 8.35038e-05
9 *211:10 8.35038e-05

*RES
1 *211:11 *636:QN 8
2 *211:10 *211:11 8
3 *211:9 *211:10 5.88207
4 *211:7 *211:9 8
5 *211:6 *637:A0 8
6 *211:6 *211:7 4.33551
7 *211:5 *211:6 1.23912
8 *211:4 *211:5 8
9 *211:3 *211:4 4.8369
10 *211:2 *211:3 8
11 *211:1 *211:2 1.24409
12 *663:B *211:1 8
*END

*D_NET *212 0.000588895

*CONN
*I *638:B0 I *C 9.7 34.675 *L 0.000433 *D OAI22X1LVT
*I *644:A I *C 10.18 35.02 *L 0.000234 *D MXI2XLLVT
*I *635:QN O *C 8.29 36.22 *L 0 *D DFFRXLLVT

*CAP
1 *212:2 1.17308e-05
2 *212:3 1.17308e-05
3 *212:4 8.67522e-05
4 *212:5 9.4458e-06
5 *212:6 8.12836e-05
6 *212:7 0.000117308
7 *212:8 3.97718e-06
8 *212:9 0.000117308
9 *212:11 7.41845e-05
10 *212:12 7.46795e-05
11 *212:13 4.94975e-07

*RES
1 *212:13 *635:QN 8
2 *212:12 *212:13 0.0324609
3 *212:11 *212:12 4.86551
4 *212:9 *212:11 8
5 *212:8 *644:A 8
6 *212:7 *212:9 6.85422
7 *212:6 *212:8 0.260867
8 *212:5 *212:7 8
9 *212:4 *212:6 5.0706
10 *212:4 *212:5 0.619558
11 *212:3 *212:4 8
12 *212:2 *212:3 0.685422
13 *212:1 *212:2 8
14 *638:B0 *212:1 8
*END

*D_NET *213 0.00206605

*CONN
*I *664:B I *C 22.525 15.845 *L 0.00265 *D NAND2X6LVT
*I *656:A1 I *C 19.7 15.865 *L 0.000234 *D OAI21XLLVT
*I *520:A I *C 21.7 20.805 *L 0.000234 *D INVXLLVT
*I *522:Y O *C 29.415 24.67 *L 0 *D CLKINVX4LVT
*I *431:A I *C 29.565 22.475 *L 0.000233 *D CLKBUFX2LVT

*CAP
1 *213:0 8.35705e-05
2 *213:1 9.2966e-05
3 *213:3 9.3955e-06
4 *213:4 0.000100592
5 *213:5 6.48212e-05
6 *213:6 0.000100592
7 *213:7 0.000309211
8 *213:9 0.00024439
9 *213:12 0.000264209
10 *213:14 0.000487443
11 *213:15 4.28151e-05
12 *213:16 0.000223234
13 *213:17 4.28151e-05

*RES
1 *213:19 *431:A 8
2 *213:17 *213:19 8
3 *213:16 *522:Y 8
4 *213:15 *213:17 2.21743
5 *213:14 *213:16 11.868
6 *213:14 *213:15 8
7 *213:12 *213:14 16.867
8 *213:10 *520:A 8
9 *213:9 *213:12 8
10 *213:8 *656:A1 8
11 *213:7 *213:10 8
12 *213:7 *213:9 14.745
13 *213:6 *213:8 8
14 *213:5 *213:7 3.91091
15 *213:4 *213:6 6.07242
16 *213:3 *213:5 8
17 *213:1 *213:4 8
18 *213:1 *213:3 0.619529
19 *213:0 *664:B 8
20 *213:0 *213:1 5.51055
*END

*D_NET *214 0.000674599

*CONN
*I *495:B I *C 26.3 19.665 *L 0.000433 *D NAND2X1LVT
*I *491:A1 I *C 27.7 19.475 *L 0.000433 *D AOI21X1LVT
*I *493:A I *C 26.015 17.615 *L 0.000234 *D XNOR2X1LVT
*I *525:Y O *C 19.73 18.85 *L 0 *D INVX1LVT
*I *496:A I *C 27.145 19.145 *L 0.000233 *D OR2XLLVT

*CAP
1 *214:0 1.17005e-05
2 *214:1 2.58643e-05
3 *214:4 3.84886e-05
4 *214:5 7.75391e-06
5 *214:6 2.43248e-05
6 *214:7 7.75391e-06
7 *214:8 0.000264433
8 *214:9 6.15817e-06
9 *214:10 0.000264433
10 *214:12 6.15817e-06
11 *214:14 8.76529e-06
12 *214:16 8.76529e-06

*RES
1 *214:17 *496:A 8
2 *214:16 *214:17 8
3 *214:14 *214:16 0.453962
4 *214:13 *525:Y 8
5 *214:12 *214:14 8
6 *214:10 *214:13 8
7 *214:9 *214:12 0.327392
8 *214:9 *493:A 8
9 *214:8 *214:10 13.8393
10 *214:7 *214:9 8
11 *214:6 *214:8 8
12 *214:5 *214:7 0.401582
13 *214:4 *214:6 1.2932
14 *214:4 *214:5 8
15 *214:1 *214:4 0.753002
16 *214:1 *491:A1 8
17 *214:0 *495:B 8
18 *214:0 *214:1 0.622045
*END

*D_NET *215 0.000611747

*CONN
*I *471:A I *C 28.47 10.76 *L 0.00267 *D NAND2X6LVT
*I *488:A I *C 24.965 10.42 *L 0.000234 *D XOR2XLLVT
*I *445:Y O *C 24.53 9.08 *L 0 *D INVX2LVT

*CAP
1 *215:0 1.6813e-05
2 *215:1 1.6813e-05
3 *215:3 0.00019336
4 *215:4 0.00019336
5 *215:5 7.17025e-05
6 *215:7 7.17025e-05
7 *215:8 2.39976e-05
8 *215:9 2.39976e-05

*RES
1 *215:10 *445:Y 8
2 *215:9 *215:10 8
3 *215:8 *215:9 1.44787
4 *215:7 *215:8 8
5 *215:5 *215:7 4.72798
6 *215:5 *488:A 8
7 *215:4 *215:5 8
8 *215:3 *215:4 11.6662
9 *215:1 *215:3 8
10 *215:0 *471:A 8
11 *215:0 *215:1 1.10863
*END

*D_NET *216 0.000453357

*CONN
*I *369:Y O *C 29.73 9.08 *L 0 *D INVX2LVT
*I *497:A1N I *C 30.7 9.215 *L 0.000233 *D OAI2BB1X1LVT
*I *499:B I *C 31.745 10.775 *L 0.000467 *D XNOR2X1LVT
*I *501:A I *C 32.1 10.735 *L 0.000436 *D NAND2X1LVT

*CAP
1 *216:0 5.3512e-05
2 *216:1 0.000111161
3 *216:3 5.76495e-05
4 *216:4 6.67575e-06
5 *216:6 8.72793e-05
6 *216:7 6.67575e-06
7 *216:8 8.92573e-05
8 *216:10 1.95843e-05
9 *216:11 1.978e-06
10 *216:12 1.95843e-05

*RES
1 *216:14 *501:A 8
2 *216:12 *216:14 8
3 *216:11 *499:B 8
4 *216:10 *216:12 1.18159
5 *216:8 *216:11 0.130427
6 *216:8 *216:10 8
7 *216:7 *497:A1N 8
8 *216:6 *216:8 5.7551
9 *216:4 *216:7 0.440192
10 *216:3 *216:6 8
11 *216:2 *369:Y 8
12 *216:1 *216:4 8
13 *216:1 *216:3 3.47821
14 *216:0 *216:2 8
15 *216:0 *216:1 3.22858
*END

*D_NET *217 0.000768155

*CONN
*I *512:B I *C 34.145 10.775 *L 0.000467 *D XNOR2X1LVT
*I *667:Y O *C 34.93 12.01 *L 0 *D INVX1LVT
*I *510:A0 I *C 35.1 12.825 *L 0.000436 *D AOI21X1LVT
*I *515:B I *C 36.1 12.635 *L 0.000234 *D OR2XLLVT
*I *514:A I *C 36.7 14.155 *L 0.000436 *D NAND2X1LVT

*CAP
1 *217:0 5.43395e-05
2 *217:1 0.000129918
3 *217:3 7.55787e-05
4 *217:4 0.000104092
5 *217:6 1.13735e-05
6 *217:7 0.000104092
7 *217:8 2.0769e-05
8 *217:10 9.3955e-06
9 *217:11 8.3724e-05
10 *217:13 0.000120589
11 *217:14 3.68646e-05
12 *217:16 8.70939e-06
13 *217:18 8.70939e-06

*RES
1 *217:18 *514:A 8
2 *217:16 *217:18 0.616758
3 *217:15 *515:B 8
4 *217:14 *217:16 8
5 *217:13 *217:15 8
6 *217:13 *217:14 2.59704
7 *217:11 *217:13 5.28443
8 *217:10 *510:A0 8
9 *217:8 *217:11 8
10 *217:8 *217:10 0.619529
11 *217:7 *667:Y 8
12 *217:6 *217:8 0.749956
13 *217:4 *217:7 6.86373
14 *217:3 *217:6 8
15 *217:2 *512:B 8
16 *217:1 *217:4 8
17 *217:1 *217:3 4.55995
18 *217:0 *217:2 8
19 *217:0 *217:1 3.2785
*END

*D_NET *218 0.00112586

*CONN
*I *505:A I *C 22.415 21.035 *L 0.000234 *D XNOR2X1LVT
*I *507:B I *C 24.5 23.085 *L 0.000433 *D NAND2X1LVT
*I *526:Y O *C 19.93 21.43 *L 0 *D INVX1LVT
*I *503:A1 I *C 25.5 20.805 *L 0.000433 *D AOI21X1LVT
*I *508:A I *C 23.945 22.565 *L 0.000233 *D OR2XLLVT

*CAP
1 *218:0 0.000194522
2 *218:1 0.000362074
3 *218:2 9.36042e-05
4 *218:4 0.000167552
5 *218:5 7.94404e-05
6 *218:6 1.41638e-05
7 *218:8 2.43248e-05
8 *218:9 3.7421e-05
9 *218:11 1.34851e-05
10 *218:12 2.43248e-05
11 *218:13 3.7421e-05
12 *218:14 1.34851e-05
13 *218:16 3.20225e-05
14 *218:18 3.20225e-05

*RES
1 *218:18 *508:A 8
2 *218:17 *503:A1 8
3 *218:16 *218:18 1.70244
4 *218:14 *218:17 8
5 *218:13 *218:16 8
6 *218:12 *526:Y 8
7 *218:11 *218:14 0.698404
8 *218:9 *218:13 1.93807
9 *218:8 *218:12 1.2932
10 *218:6 *218:11 8
11 *218:5 *507:B 8
12 *218:5 *218:9 8
13 *218:4 *218:8 8
14 *218:3 *505:A 8
15 *218:2 *218:6 0.753002
16 *218:2 *218:5 4.22336
17 *218:1 *218:4 8.67767
18 *218:1 *218:3 8
19 *218:0 *218:2 8
20 *218:0 *218:1 10.0745
*END

*D_NET *219 0.00326046

*CONN
*I *411:B I *C 35.5 17.575 *L 0.000233 *D AND2X1LVT
*I *487:A I *C 38.79 19.41 *L 0.000234 *D CLKXOR2X1LVT
*I *484:B I *C 31.7 17.385 *L 0.000233 *D OR2X1LVT
*I *517:Y O *C 12.93 17.52 *L 0 *D INVX2LVT

*CAP
1 *219:0 1.55852e-05
2 *219:1 0.000229701
3 *219:3 0.000214115
4 *219:4 9.67696e-05
5 *219:5 0.000358365
6 *219:6 9.67696e-05
7 *219:7 0.00129705
8 *219:10 0.000938686
9 *219:13 6.71149e-06
10 *219:14 6.71149e-06

*RES
1 *219:14 *517:Y 8
2 *219:13 *219:14 0.440212
3 *219:10 *219:13 8
4 *219:9 *484:B 8
5 *219:8 *487:A 8
6 *219:7 *219:10 48.7595
7 *219:7 *219:9 8
8 *219:6 *219:8 8
9 *219:5 *219:7 18.6899
10 *219:4 *219:6 6.81724
11 *219:3 *219:5 8
12 *219:1 *219:4 8
13 *219:1 *219:3 14.941
14 *219:0 *411:B 8
15 *219:0 *219:1 1.10367
*END

*D_NET *220 0.000374764

*CONN
*I *466:A I *C 16.21 12.44 *L 0.000884 *D NAND2X2LVT
*I *368:A I *C 15.165 12.215 *L 0.000233 *D CLKBUFX2LVT
*I *385:Y O *C 14.33 12.01 *L 0 *D INVX3LVT

*CAP
1 *220:0 1.11369e-05
2 *220:1 2.12839e-05
3 *220:3 1.0147e-05
4 *220:4 4.13192e-05
5 *220:5 0.000124779
6 *220:6 4.13192e-05
7 *220:7 0.000124779

*RES
1 *220:9 *385:Y 8
2 *220:8 *368:A 8
3 *220:7 *220:9 8
4 *220:6 *220:8 8
5 *220:5 *220:7 7.56638
6 *220:4 *220:6 2.50553
7 *220:3 *220:5 8
8 *220:1 *220:4 8
9 *220:1 *220:3 0.665449
10 *220:0 *466:A 8
11 *220:0 *220:1 0.730371
*END

*D_NET *221 0.00586006

*CONN
*I *614:RN I *C 11.74 12.45 *L 0.00103 *D DFFRHQX4LVT
*I *612:RN I *C 12.34 9.03 *L 0.00103 *D DFFRHQX4LVT
*I *611:RN I *C 11.74 10.73 *L 0.00103 *D DFFRHQX4LVT
*I *613:RN I *C 14.9 15.865 *L 0.000679 *D DFFRHQX1LVT
*I *607:RN I *C 10.1 17.575 *L 0.000679 *D DFFRHQX1LVT
*I *608:RN I *C 11.74 15.87 *L 0.00103 *D DFFRHQX4LVT
*I *619:RN I *C 16.74 17.57 *L 0.00103 *D DFFRHQX4LVT
*I *609:RN I *C 17.1 19.285 *L 0.000679 *D DFFRHQX1LVT
*I *622:RN I *C 21.34 14.15 *L 0.00103 *D DFFRHQX4LVT
*I *620:RN I *C 20.3 17.575 *L 0.000679 *D DFFRHQX1LVT
*I *610:RN I *C 11.1 20.995 *L 0.000679 *D DFFRHQX1LVT
*I *621:RN I *C 23.7 26.125 *L 0.000679 *D DFFRHQX1LVT
*I *530:Y O *C 9.645 31.03 *L 0 *D CLKINVX8LVT
*I *633:RN I *C 11.9 31.255 *L 0.000679 *D DFFRHQX1LVT

*CAP
1 *221:0 0.000129945
2 *221:1 0.000232044
3 *221:3 0.000148508
4 *221:4 8.99815e-05
5 *221:6 4.64089e-05
6 *221:8 0.000179438
7 *221:10 8.99815e-05
8 *221:12 8.94569e-05
9 *221:15 0.000179438
10 *221:17 6.03315e-05
11 *221:19 9.51382e-05
12 *221:20 0.000179438
13 *221:22 6.03315e-05
14 *221:24 9.51382e-05
15 *221:25 8.99815e-05
16 *221:29 0.000340108
17 *221:33 0.000550718
18 *221:34 1.16022e-05
19 *221:38 0.000290046
20 *221:40 8.95662e-05
21 *221:43 6.78333e-05
22 *221:44 9.01572e-05
23 *221:46 0.000179679
24 *221:47 9.54793e-05
25 *221:48 9.01572e-05
26 *221:50 9.01129e-05
27 *221:52 9.54793e-05
28 *221:55 1.24346e-05
29 *221:59 1.24346e-05
30 *221:63 9.01129e-05
31 *221:65 9.01129e-05
32 *221:67 0.000477794
33 *221:69 0.000213248
34 *221:70 0.000264546
35 *221:73 0.000270339
36 *221:75 0.000462422
37 *221:77 0.000192083
38 *221:78 9.0151e-06
39 *221:81 9.0151e-06

*RES
1 *221:86 *633:RN 8
2 *221:85 *221:86 8
3 *221:83 *221:85 8
4 *221:82 *530:Y 8
5 *221:81 *221:83 8
6 *221:80 *221:82 8
7 *221:78 *221:81 0.496931
8 *221:77 *221:80 8
9 *221:76 *621:RN 8
10 *221:75 *221:78 8
11 *221:75 *221:77 11.8857
12 *221:74 *221:76 8
13 *221:73 *221:75 16.7281
14 *221:72 *221:74 8
15 *221:70 *221:73 8
16 *221:69 *221:72 8
17 *221:68 *610:RN 8
18 *221:67 *221:70 14.5824
19 *221:67 *221:69 11.6652
20 *221:66 *221:68 8
21 *221:65 *221:67 8
22 *221:63 *221:66 8
23 *221:63 *221:65 5.57603
24 *221:61 *620:RN 8
25 *221:59 *221:63 8
26 *221:58 *622:RN 8
27 *221:57 *221:61 8
28 *221:56 *609:RN 8
29 *221:55 *221:59 0.685422
30 *221:53 *221:58 8
31 *221:52 *221:57 8
32 *221:51 *221:56 8
33 *221:50 *221:55 8
34 *221:49 *619:RN 8
35 *221:48 *221:53 8
36 *221:47 *221:52 5.56575
37 *221:46 *221:51 8
38 *221:46 *221:50 5.57603
39 *221:45 *221:49 8
40 *221:44 *221:48 5.60837
41 *221:43 *221:47 8
42 *221:40 *221:46 5.54159
43 *221:39 *221:45 8
44 *221:38 *221:44 8
45 *221:38 *221:43 3.86098
46 *221:37 *608:RN 8
47 *221:36 *607:RN 8
48 *221:34 *221:40 8
49 *221:33 *221:39 8
50 *221:33 *221:38 12.648
51 *221:32 *221:37 8
52 *221:31 *221:36 8
53 *221:30 *613:RN 8
54 *221:29 *221:34 0.663718
55 *221:29 *221:33 18.7448
56 *221:28 *221:32 8
57 *221:27 *221:31 8
58 *221:26 *221:30 8
59 *221:25 *221:29 8
60 *221:24 *221:28 8
61 *221:22 *221:27 8
62 *221:20 *221:26 8
63 *221:20 *221:25 5.56705
64 *221:19 *221:24 5.44248
65 *221:18 *611:RN 8
66 *221:17 *221:22 3.45133
67 *221:16 *612:RN 8
68 *221:15 *221:20 5.53459
69 *221:15 *221:19 8
70 *221:13 *221:18 8
71 *221:12 *221:17 8
72 *221:11 *221:16 8
73 *221:10 *221:15 5.56705
74 *221:9 *614:RN 8
75 *221:8 *221:13 8
76 *221:8 *221:12 5.53459
77 *221:7 *221:11 8
78 *221:6 *221:10 8
79 *221:5 *221:9 8
80 *221:4 *221:8 5.56705
81 *221:3 *221:7 8
82 *221:3 *221:6 2.65487
83 *221:2 *221:5 8
84 *221:1 *221:4 8
85 *221:1 *221:3 5.84071
86 *221:0 *221:2 8
87 *221:0 *221:1 7.43364
*END

*D_NET *222 0.00107186

*CONN
*I *665:D I *C 26.7 36.575 *L 0.000234 *D DFFRX1LVT
*I *535:E I *C 25.7 29.925 *L 0.000176 *D TLATNTSCAX2HVT
*I *519:Y O *C 24.73 31.2 *L 0 *D INVX2LVT

*CAP
1 *222:1 9.40453e-06
2 *222:2 9.40453e-06
3 *222:3 7.22457e-05
4 *222:4 7.22457e-05
5 *222:5 0.000286773
6 *222:6 1.88091e-05
7 *222:7 0.000267964
8 *222:8 0.000144491
9 *222:10 0.000144491
10 *222:11 2.15314e-05
11 *222:12 2.30163e-05
12 *222:13 1.48493e-06

*RES
1 *222:13 *519:Y 8
2 *222:12 *222:13 0.0973828
3 *222:11 *222:12 1.41205
4 *222:10 *222:11 8
5 *222:8 *222:10 9.1704
6 *222:7 *535:E 8
7 *222:6 *222:8 8
8 *222:5 *222:7 14.3044
9 *222:5 *222:6 1.23352
10 *222:4 *222:5 8
11 *222:3 *222:4 4.5852
12 *222:2 *222:3 8
13 *222:1 *222:2 0.616758
14 *665:D *222:1 8
*END

*D_NET *223 0.000212608

*CONN
*I *666:Y O *C 9.93 28.27 *L 0 *D INVX1LVT
*I *408:A I *C 9.3 27.715 *L 0.000884 *D NAND3X2LVT

*CAP
1 *223:0 6.93521e-05
2 *223:1 6.93521e-05
3 *223:3 3.69519e-05
4 *223:4 3.69519e-05

*RES
1 *223:5 *408:A 8
2 *223:4 *223:5 8
3 *223:3 *223:4 2.15908
4 *223:1 *223:3 8
5 *223:0 *666:Y 8
6 *223:0 *223:1 4.54886
*END

*D_NET *224 0.000750712

*CONN
*I *415:A I *C 18.965 15.635 *L 0.000233 *D CLKBUFX2LVT
*I *463:A I *C 18.5 12.635 *L 0.000436 *D INVX1LVT
*I *465:A I *C 21.1 12.635 *L 0.00133 *D INVX3LVT
*I *664:Y O *C 23.01 15.675 *L 0 *D NAND2X6LVT
*I *414:A I *C 17.3 14.155 *L 0.000233 *D BUFX2LVT

*CAP
1 *224:0 5.87528e-05
2 *224:1 5.87528e-05
3 *224:3 0.000169119
4 *224:5 0.00014835
5 *224:6 2.0769e-05
6 *224:7 6.06837e-06
7 *224:9 1.10334e-05
8 *224:10 6.06837e-06
9 *224:11 1.10334e-05
10 *224:12 9.3955e-06
11 *224:14 0.000103351
12 *224:16 9.3955e-05
13 *224:17 2.70318e-05
14 *224:19 2.70318e-05

*RES
1 *224:20 *414:A 8
2 *224:19 *224:20 8
3 *224:17 *224:19 1.63093
4 *224:16 *664:Y 8
5 *224:14 *224:17 8
6 *224:14 *224:16 6.19529
7 *224:13 *465:A 8
8 *224:12 *224:14 0.619529
9 *224:11 *224:13 8
10 *224:10 *224:12 8
11 *224:9 *224:11 0.665686
12 *224:7 *224:10 0.366127
13 *224:6 *224:9 8
14 *224:5 *463:A 8
15 *224:5 *224:7 8
16 *224:3 *224:6 1.36948
17 *224:3 *224:5 9.78203
18 *224:2 *415:A 8
19 *224:1 *224:3 8
20 *224:0 *224:2 8
21 *224:0 *224:1 3.54478
*END

*D_NET *225 0.00198963

*CONN
*I *643:B0 I *C 13.3 32.965 *L 0.000435 *D OAI221X1LVT
*I *658:B I *C 11.9 34.485 *L 0.000876 *D NAND2X2LVT
*I *655:B I *C 9.9 31.065 *L 0.000433 *D NAND2BX1LVT
*I *663:Y O *C 15.74 33.09 *L 0 *D CLKAND2X2LVT

*CAP
1 *225:2 1.17308e-05
2 *225:3 1.17308e-05
3 *225:4 9.4458e-05
4 *225:5 9.4458e-05
5 *225:6 1.17308e-05
6 *225:7 0.000129038
7 *225:8 0.00017947
8 *225:9 0.000222885
9 *225:10 0.00017947
10 *225:12 0.000105577
11 *225:13 0.000352472
12 *225:15 0.000103904
13 *225:16 0.000352472
14 *225:17 0.000103904
15 *225:18 1.57033e-05
16 *225:20 1.81666e-05
17 *225:21 2.46327e-06

*RES
1 *225:21 *663:Y 8
2 *225:20 *225:21 0.130957
3 *225:18 *225:20 0.83485
4 *225:17 *655:B 8
5 *225:16 *225:18 8
6 *225:15 *225:17 6.81514
7 *225:13 *225:16 19.9681
8 *225:12 *225:15 8
9 *225:11 *658:B 8
10 *225:10 *225:13 8
11 *225:9 *225:12 6.1688
12 *225:9 *225:11 8
13 *225:8 *225:10 11.7716
14 *225:7 *225:9 6.85422
15 *225:7 *225:8 8
16 *225:6 *225:7 0.685422
17 *225:5 *225:6 8
18 *225:4 *225:5 6.19558
19 *225:3 *225:4 8
20 *225:2 *225:3 0.685422
21 *225:1 *225:2 8
22 *643:B0 *225:1 8
*END

*D_NET *226 0.000894292

*CONN
*I *654:A I *C 14.3 31.255 *L 0.000436 *D NAND2X1LVT
*I *651:A I *C 16.9 31.135 *L 0.000884 *D NAND3X2LVT
*I *643:C0 I *C 13.55 32.9 *L 0.000433 *D OAI221X1LVT
*I *662:Y O *C 17.755 31.3 *L 0 *D NAND2X1LVT

*CAP
1 *226:1 0.000103904
2 *226:2 0.000103904
3 *226:3 3.51923e-05
4 *226:4 0.0001525
5 *226:5 0.000187692
6 *226:6 1.26773e-05
7 *226:7 7.03846e-05
8 *226:8 3.48003e-06
9 *226:9 1.5163e-05
10 *226:10 8.50122e-05
11 *226:11 3.48003e-06
12 *226:12 2.48574e-06
13 *226:13 8.50122e-05
14 *226:16 1.17308e-05
15 *226:17 1.17308e-05
16 *226:18 2.48574e-06
17 *226:19 4.97147e-06
18 *226:20 2.48574e-06

*RES
1 *226:20 *662:Y 8
2 *226:19 *226:20 0.163042
3 *226:18 *226:19 0.163042
4 *226:17 *226:18 8
5 *226:16 *226:17 0.685422
6 *226:13 *226:16 8
7 *226:12 *643:C0 8
8 *226:11 *651:A 8
9 *226:10 *226:13 5.57603
10 *226:9 *226:12 0.163042
11 *226:8 *226:11 0.228258
12 *226:7 *226:10 8
13 *226:6 *226:9 0.831512
14 *226:5 *226:8 8
15 *226:5 *226:7 4.11253
16 *226:4 *226:6 8
17 *226:4 *226:5 6.85422
18 *226:3 *226:4 2.05627
19 *226:2 *226:3 8
20 *226:1 *226:2 6.81514
21 *654:A *226:1 8
*END

*D_NET *227 3.57503e-05

*CONN
*I *653:A I *C 8.3 17.575 *L 0.000436 *D NAND2X1LVT
*I *661:Y O *C 12.515 19.41 *L 0 *D NOR2X1LVT

*CAP
1 *227:2 1.09455e-05
2 *227:3 1.09455e-05
3 *227:4 6.18719e-06
4 *227:5 6.92965e-06
5 *227:6 7.42463e-07

*RES
1 *227:6 *661:Y 8
2 *227:5 *227:6 0.0486914
3 *227:4 *227:5 0.405762
4 *227:3 *227:4 8
5 *227:2 *227:3 0.663718
6 *227:1 *227:2 8
7 *653:A *227:1 8
*END

*D_NET *228 0.00027741

*CONN
*I *653:B I *C 8.5 17.195 *L 0.000433 *D NAND2X1LVT
*I *660:Y O *C 9.555 19.19 *L 0 *D NOR2X2LVT

*CAP
1 *228:2 1.09455e-05
2 *228:3 1.09455e-05
3 *228:4 0.000112854
4 *228:5 0.000112854
5 *228:6 1.09455e-05
6 *228:7 1.09455e-05
7 *228:8 3.21734e-06
8 *228:9 3.9598e-06
9 *228:10 7.42463e-07

*RES
1 *228:10 *660:Y 8
2 *228:9 *228:10 0.0486914
3 *228:8 *228:9 0.210996
4 *228:7 *228:8 8
5 *228:6 *228:7 0.663718
6 *228:5 *228:6 8
7 *228:4 *228:5 7.40109
8 *228:3 *228:4 8
9 *228:2 *228:3 0.663718
10 *228:1 *228:2 8
11 *653:B *228:1 8
*END

*D_NET *229 0.000214462

*CONN
*I *668:AN I *C 10.34 22.64 *L 0.000234 *D NOR3BX2LVT
*I *659:Y O *C 8.515 24.29 *L 0 *D NOR2X1LVT

*CAP
1 *229:1 2.23716e-06
2 *229:2 7.97921e-05
3 *229:3 7.7555e-05
4 *229:4 2.34615e-05
5 *229:5 2.34615e-05
6 *229:6 3.23146e-06
7 *229:7 3.97718e-06
8 *229:8 7.45721e-07

*RES
1 *229:8 *659:Y 8
2 *229:7 *229:8 0.0489125
3 *229:6 *229:7 0.211954
4 *229:5 *229:6 8
5 *229:4 *229:5 1.37084
6 *229:3 *229:4 8
7 *229:2 *229:3 5.0869
8 *229:1 *229:2 0.146738
9 *668:AN *229:1 8
*END

*D_NET *230 0.00021839

*CONN
*I *647:B0 I *C 16.865 34.715 *L 0.000436 *D OAI2BB1X1LVT
*I *657:Y O *C 16.975 32.71 *L 0 *D OR3XLLVT

*CAP
1 *230:1 1.73241e-06
2 *230:2 2.79661e-05
3 *230:3 2.62337e-05
4 *230:4 6.19249e-05
5 *230:5 6.19249e-05
6 *230:6 1.55917e-05
7 *230:7 1.9304e-05
8 *230:8 3.71231e-06

*RES
1 *230:8 *657:Y 8
2 *230:7 *230:8 0.243457
3 *230:6 *230:7 1.02252
4 *230:5 *230:6 8
5 *230:4 *230:5 3.93017
6 *230:3 *230:4 8
7 *230:2 *230:3 1.72043
8 *230:1 *230:2 0.113613
9 *647:B0 *230:1 8
*END

*D_NET *231 2.56769e-05

*CONN
*I *656:Y O *C 20.14 15.46 *L 0 *D OAI21XLLVT
*I *376:A I *C 18.7 17.385 *L 0.000436 *D INVX1LVT

*CAP
1 *231:0 1.06318e-05
2 *231:1 1.06318e-05
3 *231:3 2.20668e-06
4 *231:4 2.20668e-06

*RES
1 *231:5 *376:A 8
2 *231:4 *231:5 8
3 *231:3 *231:4 0.133137
4 *231:1 *231:3 8
5 *231:0 *656:Y 8
6 *231:0 *231:1 0.701046
*END

*D_NET *232 0.000122681

*CONN
*I *634:A0 I *C 9.9 29.355 *L 0.000435 *D OAI211X1LVT
*I *655:Y O *C 10.12 31.715 *L 0 *D NAND2BX1LVT

*CAP
1 *232:1 9.4458e-06
2 *232:2 9.4458e-06
3 *232:3 4.69231e-05
4 *232:4 4.69231e-05
5 *232:5 3.97718e-06
6 *232:6 4.97147e-06
7 *232:7 9.94295e-07

*RES
1 *232:7 *655:Y 8
2 *232:6 *232:7 0.0652167
3 *232:5 *232:6 0.260867
4 *232:4 *232:5 8
5 *232:3 *232:4 2.74169
6 *232:2 *232:3 8
7 *232:1 *232:2 0.619558
8 *634:A0 *232:1 8
*END

*D_NET *233 0.000576041

*CONN
*I *650:AN I *C 13.3 34.675 *L 0.000234 *D NAND3BX1LVT
*I *644:S0 I *C 11.14 34.93 *L 0.000467 *D MXI2XLLVT
*I *658:Y O *C 12.35 34.815 *L 0 *D NAND2X2LVT

*CAP
1 *233:1 3.48003e-06
2 *233:2 9.69437e-06
3 *233:3 6.21434e-06
4 *233:4 0.000117308
5 *233:5 0.0001525
6 *233:6 3.23146e-06
7 *233:7 3.51923e-05
8 *233:8 5.22005e-06
9 *233:9 0.000103904
10 *233:10 1.98859e-06
11 *233:11 0.000103904
12 *233:13 1.17308e-05
13 *233:14 1.17308e-05
14 *233:15 2.48574e-06
15 *233:16 4.97147e-06
16 *233:17 2.48574e-06

*RES
1 *233:17 *658:Y 8
2 *233:16 *233:17 0.163042
3 *233:15 *233:16 0.163042
4 *233:14 *233:15 8
5 *233:13 *233:14 0.685422
6 *233:11 *233:13 8
7 *233:10 *644:S0 8
8 *233:9 *233:11 6.81514
9 *233:8 *233:10 0.130433
10 *233:7 *233:9 8
11 *233:6 *233:8 0.211954
12 *233:5 *233:7 2.05627
13 *233:5 *233:6 8
14 *233:4 *233:5 6.85422
15 *233:3 *233:4 8
16 *233:2 *233:3 0.407604
17 *233:1 *233:2 0.228258
18 *650:AN *233:1 8
*END

*D_NET *234 0.000196048

*CONN
*I *648:A I *C 14.615 32.99 *L 0.000879 *D NOR2X2LVT
*I *654:Y O *C 14.755 31.3 *L 0 *D NAND2X1LVT

*CAP
1 *234:1 9.4458e-06
2 *234:2 9.4458e-06
3 *234:3 8.21154e-05
4 *234:4 8.21154e-05
5 *234:5 4.47433e-06
6 *234:6 6.46292e-06
7 *234:7 1.98859e-06

*RES
1 *234:7 *654:Y 8
2 *234:6 *234:7 0.130433
3 *234:5 *234:6 0.293475
4 *234:4 *234:5 8
5 *234:3 *234:4 4.79796
6 *234:2 *234:3 8
7 *234:1 *234:2 0.619558
8 *648:A *234:1 8
*END

*D_NET *235 0.000613141

*CONN
*I *668:C I *C 9.74 22.325 *L 0.000878 *D NOR3BX2LVT
*I *653:Y O *C 8.755 17.62 *L 0 *D NAND2X1LVT

*CAP
1 *235:2 2.34615e-05
2 *235:3 2.34615e-05
3 *235:4 0.000245323
4 *235:5 0.000245323
5 *235:6 3.28365e-05
6 *235:7 3.28365e-05
7 *235:8 2.22739e-06
8 *235:9 4.94975e-06
9 *235:10 2.72236e-06

*RES
1 *235:10 *653:Y 8
2 *235:9 *235:10 0.178535
3 *235:8 *235:9 0.146074
4 *235:7 *235:8 8
5 *235:6 *235:7 1.99115
6 *235:5 *235:6 8
7 *235:4 *235:5 16.0903
8 *235:3 *235:4 8
9 *235:2 *235:3 1.37084
10 *235:1 *235:2 8
11 *668:C *235:1 8
*END

*D_NET *236 0.000399267

*CONN
*I *651:B I *C 16.74 31.32 *L 0.000881 *D NAND3X2LVT
*I *652:Y O *C 16.015 28.92 *L 0 *D NAND3BX1LVT

*CAP
1 *236:1 1.98859e-06
2 *236:2 6.48777e-05
3 *236:3 6.28891e-05
4 *236:4 0.000129038
5 *236:5 0.000129038
6 *236:6 2.73431e-06
7 *236:7 5.71719e-06
8 *236:8 2.98288e-06

*RES
1 *236:8 *652:Y 8
2 *236:7 *236:8 0.19565
3 *236:6 *236:7 0.179346
4 *236:5 *236:6 8
5 *236:4 *236:5 7.53964
6 *236:3 *236:4 8
7 *236:2 *236:3 4.12495
8 *236:1 *236:2 0.130433
9 *651:B *236:1 8
*END

*D_NET *237 0.000440241

*CONN
*I *640:A1 I *C 14.99 34.93 *L 0.000233 *D OA21X1LVT
*I *650:Y O *C 13.015 35.3 *L 0 *D NAND3BX1LVT

*CAP
1 *237:1 5.54235e-06
2 *237:2 1.32401e-05
3 *237:3 7.69771e-06
4 *237:4 0.000199423
5 *237:5 0.000199423
6 *237:6 5.46862e-06
7 *237:7 7.45721e-06
8 *237:8 1.98859e-06

*RES
1 *237:8 *650:Y 8
2 *237:7 *237:8 0.130433
3 *237:6 *237:7 0.358692
4 *237:5 *237:6 8
5 *237:4 *237:5 11.6522
6 *237:3 *237:4 8
7 *237:2 *237:3 0.40924
8 *237:1 *237:2 0.294653
9 *640:A1 *237:1 8
*END

*D_NET *238 0.000838971

*CONN
*I *649:A I *C 21.7 33.155 *L 0.000436 *D INVX1LVT
*I *642:B0 I *C 25.465 31.295 *L 0.000436 *D OAI2BB1X1LVT
*I *651:Y O *C 17.165 31.515 *L 0 *D NAND3X2LVT

*CAP
1 *238:1 1.17005e-05
2 *238:2 1.17005e-05
3 *238:3 4.04552e-05
4 *238:4 0.000387009
5 *238:5 2.46327e-06
6 *238:6 0.000346554
7 *238:7 4.61863e-06
8 *238:8 1.29258e-05
9 *238:9 2.15536e-06
10 *238:10 1.61573e-05
11 *238:12 3.23146e-06

*RES
1 *238:12 *651:Y 8
2 *238:10 *238:12 0.211954
3 *238:9 *642:B0 8
4 *238:8 *238:10 0.847817
5 *238:7 *238:9 0.114587
6 *238:6 *238:8 8
7 *238:5 *238:7 0.130957
8 *238:4 *238:6 18.7271
9 *238:4 *238:5 8
10 *238:3 *238:4 2.09521
11 *238:2 *238:3 8
12 *238:1 *238:2 0.622045
13 *649:A *238:1 8
*END

*D_NET *239 0.000734153

*CONN
*I *646:D I *C 22.925 36.355 *L 0.000343 *D DFFRHQX4LVT
*I *649:Y O *C 21.93 32.53 *L 0 *D INVX1LVT

*CAP
1 *239:1 4.00281e-06
2 *239:2 6.46608e-06
3 *239:3 2.46327e-06
4 *239:4 5.39402e-05
5 *239:5 5.39402e-05
6 *239:6 0.000163807
7 *239:7 0.000163807
8 *239:8 6.74253e-05
9 *239:9 6.74253e-05
10 *239:10 7.35901e-05
11 *239:11 7.54376e-05
12 *239:12 1.84745e-06

*RES
1 *239:12 *649:Y 8
2 *239:11 *239:12 0.0982177
3 *239:10 *239:11 3.91234
4 *239:9 *239:10 8
5 *239:8 *239:9 3.49202
6 *239:7 *239:8 8
7 *239:6 *239:7 8.70863
8 *239:5 *239:6 8
9 *239:4 *239:5 2.79361
10 *239:3 *239:4 8
11 *239:2 *239:3 0.130957
12 *239:1 *239:2 0.212805
13 *646:D *239:1 8
*END

*D_NET *240 0.000446554

*CONN
*I *645:D I *C 21.365 33.115 *L 0.000343 *D DFFRHQX1LVT
*I *647:Y O *C 16.735 35.16 *L 0 *D OAI2BB1X1LVT

*CAP
1 *240:1 4.00281e-06
2 *240:2 7.55212e-05
3 *240:3 7.15184e-05
4 *240:4 0.000103208
5 *240:5 0.000103208
6 *240:6 4.28154e-05
7 *240:7 4.45478e-05
8 *240:8 1.73241e-06

*RES
1 *240:8 *647:Y 8
2 *240:7 *240:8 0.113613
3 *240:6 *240:7 2.80787
4 *240:5 *240:6 8
5 *240:4 *240:5 6.55028
6 *240:3 *240:4 8
7 *240:2 *240:3 3.86058
8 *240:1 *240:2 0.212805
9 *645:D *240:1 8
*END

*D_NET *241 0.00104728

*CONN
*I *638:B1 I *C 9.5 34.865 *L 0.000433 *D OAI22X1LVT
*I *648:Y O *C 14.755 32.87 *L 0 *D NOR2X2LVT
*I *637:A1 I *C 14.04 34.7 *L 0.000435 *D OAI21X1LVT

*CAP
1 *241:1 1.88916e-05
2 *241:2 1.88916e-05
3 *241:3 4.69231e-05
4 *241:4 4.69231e-05
5 *241:5 0.00016381
6 *241:6 1.88916e-05
7 *241:7 0.000145664
8 *241:8 0.000293269
9 *241:9 7.45721e-07
10 *241:10 0.000293269

*RES
1 *241:12 *637:A1 8
2 *241:10 *241:12 8
3 *241:9 *648:Y 8
4 *241:8 *241:10 17.1356
5 *241:7 *241:9 0.0489125
6 *241:6 *241:8 8
7 *241:5 *241:7 9.50533
8 *241:5 *241:6 1.23912
9 *241:4 *241:5 8
10 *241:3 *241:4 2.74169
11 *241:2 *241:3 8
12 *241:1 *241:2 1.23912
13 *638:B1 *241:1 8
*END

*D_NET *242 0.000281366

*CONN
*I *638:A1 I *C 9.1 34.675 *L 0.000435 *D OAI22X1LVT
*I *644:Y O *C 10.605 35.145 *L 0 *D MXI2XLLVT

*CAP
1 *242:1 3.48003e-06
2 *242:2 6.71149e-06
3 *242:3 3.23146e-06
4 *242:4 3.51923e-05
5 *242:5 3.51923e-05
6 *242:6 6.61206e-05
7 *242:7 6.61206e-05
8 *242:8 2.34615e-05
9 *242:9 2.34615e-05
10 *242:10 4.47433e-06
11 *242:11 9.19723e-06
12 *242:12 4.7229e-06

*RES
1 *242:12 *644:Y 8
2 *242:11 *242:12 0.309779
3 *242:10 *242:11 0.293475
4 *242:9 *242:10 8
5 *242:8 *242:9 1.37084
6 *242:7 *242:8 8
7 *242:6 *242:7 4.33691
8 *242:5 *242:6 8
9 *242:4 *242:5 2.05627
10 *242:3 *242:4 8
11 *242:2 *242:3 0.211954
12 *242:1 *242:2 0.228258
13 *638:A1 *242:1 8
*END

*D_NET *243 0.000320622

*CONN
*I *639:B I *C 12.1 33.345 *L 0.000433 *D NAND2X1LVT
*I *643:Y O *C 13.74 32.52 *L 0 *D OAI221X1LVT

*CAP
1 *243:1 1.88916e-05
2 *243:2 1.88916e-05
3 *243:3 0.000117308
4 *243:4 0.000117308
5 *243:5 2.21231e-05
6 *243:6 2.41116e-05
7 *243:7 1.98859e-06

*RES
1 *243:7 *643:Y 8
2 *243:6 *243:7 0.130433
3 *243:5 *243:6 1.45107
4 *243:4 *243:5 8
5 *243:3 *243:4 6.85422
6 *243:2 *243:3 8
7 *243:1 *243:2 1.23912
8 *639:B *243:1 8
*END

*D_NET *244 0.000432838

*CONN
*I *634:C0 I *C 10.585 29.545 *L 0.000432 *D OAI211X1LVT
*I *408:Y O *C 9.565 28.095 *L 0 *D NAND3X2LVT

*CAP
1 *244:0 9.7938e-05
2 *244:1 9.7938e-05
3 *244:3 0.000118481
4 *244:4 0.000118481

*RES
1 *244:5 *408:Y 8
2 *244:4 *244:5 8
3 *244:3 *244:4 6.92276
4 *244:1 *244:3 8
5 *244:0 *634:C0 8
6 *244:0 *244:1 6.42384
*END

*D_NET *245 0.000729537

*CONN
*I *641:D I *C 30.165 31.105 *L 0.000343 *D DFFRHQX1LVT
*I *642:Y O *C 25.335 31.74 *L 0 *D OAI2BB1X1LVT

*CAP
1 *245:0 3.91044e-05
2 *245:1 3.91044e-05
3 *245:3 0.000325664
4 *245:4 0.000325664

*RES
1 *245:5 *642:Y 8
2 *245:4 *245:5 8
3 *245:3 *245:4 16.8664
4 *245:1 *245:3 8
5 *245:0 *641:D 8
6 *245:0 *245:1 2.07894
*END

*D_NET *246 0.000426318

*CONN
*I *637:B0 I *C 14.195 34.85 *L 0.000433 *D OAI21X1LVT
*I *640:Y O *C 15.74 34.37 *L 0 *D OA21X1LVT

*CAP
1 *246:2 2.52158e-05
2 *246:3 2.52158e-05
3 *246:4 0.000140406
4 *246:5 0.000140406
5 *246:6 4.04552e-05
6 *246:7 4.04552e-05
7 *246:8 4.61863e-06
8 *246:9 7.0819e-06
9 *246:10 2.46327e-06

*RES
1 *246:10 *640:Y 8
2 *246:9 *246:10 0.130957
3 *246:8 *246:9 0.245544
4 *246:7 *246:8 8
5 *246:6 *246:7 2.09521
6 *246:5 *246:6 8
7 *246:4 *246:5 7.46454
8 *246:3 *246:4 8
9 *246:2 *246:3 1.38383
10 *246:1 *246:2 8
11 *637:B0 *246:1 8
*END

*D_NET *247 0.000146142

*CONN
*I *634:B0 I *C 10.3 29.735 *L 0.000436 *D OAI211X1LVT
*I *639:Y O *C 12.355 32.92 *L 0 *D NAND2X1LVT

*CAP
1 *247:2 5.86539e-05
2 *247:3 5.86539e-05
3 *247:4 1.1683e-05
4 *247:5 1.44173e-05
5 *247:6 2.73431e-06

*RES
1 *247:6 *639:Y 8
2 *247:5 *247:6 0.179346
3 *247:4 *247:5 0.766296
4 *247:3 *247:4 8
5 *247:2 *247:3 3.42711
6 *247:1 *247:2 8
7 *634:B0 *247:1 8
*END

*D_NET *248 0.000330272

*CONN
*I *635:D I *C 12.5 36.575 *L 0.000234 *D DFFRXLLVT
*I *638:Y O *C 9.57 34.46 *L 0 *D OAI22X1LVT

*CAP
1 *248:2 0.00010206
2 *248:3 0.00010206
3 *248:4 5.83529e-05
4 *248:5 6.30758e-05
5 *248:6 4.7229e-06

*RES
1 *248:6 *638:Y 8
2 *248:5 *248:6 0.309779
3 *248:4 *248:5 3.82728
4 *248:3 *248:4 8
5 *248:2 *248:3 7.18919
6 *248:1 *248:2 8
7 *635:D *248:1 8
*END

*D_NET *249 0.000330352

*CONN
*I *636:D I *C 16.5 36.575 *L 0.000234 *D DFFRX1LVT
*I *637:Y O *C 14.365 34.97 *L 0 *D OAI21X1LVT

*CAP
1 *249:2 2.06416e-05
2 *249:3 2.06416e-05
3 *249:4 0.000113561
4 *249:5 0.000113561
5 *249:6 2.69701e-05
6 *249:7 2.69701e-05
7 *249:8 1.53954e-06
8 *249:9 4.00281e-06
9 *249:10 2.46327e-06

*RES
1 *249:10 *637:Y 8
2 *249:9 *249:10 0.130957
3 *249:8 *249:9 0.0818481
4 *249:7 *249:8 8
5 *249:6 *249:7 1.39681
6 *249:5 *249:6 8
7 *249:4 *249:5 6.21252
8 *249:3 *249:4 8
9 *249:2 *249:3 1.31006
10 *249:1 *249:2 8
11 *636:D *249:1 8
*END

*D_NET *250 0.00164525

*CONN
*I *455:Y O *C 18.895 8.985 *L 0 *D NAND2X4LVT
*I *470:A0 I *C 22.94 8.96 *L 0.00179 *D OAI21X4LVT
*I *488:B I *C 25.77 10.775 *L 0.000467 *D XOR2XLLVT

*CAP
1 *250:0 6.99718e-05
2 *250:1 0.000158487
3 *250:3 3.66157e-05
4 *250:4 8.85155e-05
5 *250:5 3.66157e-05
6 *250:6 0.000627524
7 *250:8 0.000627524

*RES
1 *250:10 *488:B 8
2 *250:8 *250:10 8
3 *250:7 *470:A0 8
4 *250:6 *250:8 37.8609
5 *250:5 *250:7 8
6 *250:4 *250:6 8
7 *250:3 *250:5 2.21183
8 *250:1 *250:4 5.83661
9 *250:1 *250:3 8
10 *250:0 *455:Y 8
11 *250:0 *250:1 4.61386
*END

*D_NET *251 0.000283059

*CONN
*I *629:A0 I *C 19.865 12.585 *L 0.000884 *D AOI22X2LVT
*I *464:Y O *C 18.165 12.15 *L 0 *D OAI21X1LVT

*CAP
1 *251:0 2.39833e-05
2 *251:1 2.39833e-05
3 *251:3 0.000117546
4 *251:4 0.000117546

*RES
1 *251:5 *464:Y 8
2 *251:4 *251:5 8
3 *251:3 *251:4 7.10093
4 *251:1 *251:3 8
5 *251:0 *629:A0 8
6 *251:0 *251:1 1.58143
*END

*D_NET *252 0.000319054

*CONN
*I *633:D I *C 13.965 31.105 *L 0.000343 *D DFFRHQX1LVT
*I *634:Y O *C 10.745 28.95 *L 0 *D OAI211X1LVT

*CAP
1 *252:1 3.23146e-06
2 *252:2 1.46658e-05
3 *252:3 1.14344e-05
4 *252:4 4.69231e-05
5 *252:5 4.69231e-05
6 *252:6 9.57009e-05
7 *252:7 9.7938e-05
8 *252:8 2.23716e-06

*RES
1 *252:8 *634:Y 8
2 *252:7 *252:8 0.146738
3 *252:6 *252:7 6.2771
4 *252:5 *252:6 8
5 *252:4 *252:5 2.74169
6 *252:3 *252:4 8
7 *252:2 *252:3 0.749992
8 *252:1 *252:2 0.211954
9 *633:D *252:1 8
*END

*D_NET *253 0.000746535

*CONN
*I *500:A1 I *C 29.5 10.92 *L 0.000882 *D OAI21X2LVT
*I *475:Y O *C 28.13 9.08 *L 0 *D INVX2LVT
*I *498:B I *C 28.7 9.215 *L 0.000876 *D NAND2X2LVT

*CAP
1 *253:0 1.1868e-05
2 *253:1 1.85438e-05
3 *253:3 6.67575e-06
4 *253:4 0.00034369
5 *253:5 1.10334e-05
6 *253:6 0.00034369
7 *253:7 1.10334e-05

*RES
1 *253:9 *498:B 8
2 *253:8 *475:Y 8
3 *253:7 *253:9 8
4 *253:6 *253:8 8
5 *253:5 *253:7 0.665686
6 *253:4 *253:6 20.7361
7 *253:3 *253:5 8
8 *253:1 *253:4 8
9 *253:1 *253:3 0.440192
10 *253:0 *500:A1 8
11 *253:0 *253:1 0.782563
*END

*D_NET *254 0.000244383

*CONN
*I *628:A0 I *C 24.84 14.045 *L 0.00179 *D AOI22X4LVT
*I *489:Y O *C 25.55 12.12 *L 0 *D XOR2XLLVT

*CAP
1 *254:0 6.20598e-05
2 *254:1 6.20598e-05
3 *254:3 6.0132e-05
4 *254:4 6.0132e-05

*RES
1 *254:5 *489:Y 8
2 *254:4 *254:5 8
3 *254:3 *254:4 3.62799
4 *254:1 *254:3 8
5 *254:0 *628:A0 8
6 *254:0 *254:1 4.09215
*END

*D_NET *255 0.000633783

*CONN
*I *441:A I *C 36.965 8.795 *L 0.000233 *D CLKBUFX2LVT
*I *443:A I *C 37.5 10.735 *L 0.000233 *D BUFX2LVT
*I *473:Y O *C 35.86 9.345 *L 0 *D OAI21X4LVT
*I *516:B I *C 38.63 12.425 *L 0.00178 *D NAND2X4LVT

*CAP
1 *255:0 1.13735e-05
2 *255:1 2.71975e-05
3 *255:3 7.36479e-05
4 *255:4 1.5824e-05
5 *255:5 7.36479e-05
6 *255:6 9.40597e-05
7 *255:7 9.89e-07
8 *255:8 9.40597e-05
9 *255:9 9.89e-07
10 *255:12 0.000120997
11 *255:14 0.000120997

*RES
1 *255:15 *516:B 8
2 *255:14 *255:15 8
3 *255:12 *255:14 7.68708
4 *255:11 *473:Y 8
5 *255:9 *255:12 8
6 *255:8 *255:11 8
7 *255:7 *443:A 8
8 *255:7 *255:9 0.0652136
9 *255:6 *255:8 5.67497
10 *255:5 *255:7 8
11 *255:4 *255:6 8
12 *255:3 *255:5 4.44346
13 *255:1 *255:4 1.04342
14 *255:1 *255:3 8
15 *255:0 *441:A 8
16 *255:0 *255:1 0.749956
*END

*D_NET *256 0.000206621

*CONN
*I *500:Y O *C 30.185 10.54 *L 0 *D OAI21X2LVT
*I *627:A0 I *C 28.265 12.585 *L 0.000884 *D AOI22X2LVT

*CAP
1 *256:0 6.55213e-05
2 *256:1 6.55213e-05
3 *256:3 3.77894e-05
4 *256:4 3.77894e-05

*RES
1 *256:5 *627:A0 8
2 *256:4 *256:5 8
3 *256:3 *256:4 2.27998
4 *256:1 *256:3 8
5 *256:0 *500:Y 8
6 *256:0 *256:1 4.3204
*END

*D_NET *257 0.00020429

*CONN
*I *487:B I *C 39.535 19.235 *L 0.000467 *D CLKXOR2X1LVT
*I *483:Y O *C 38.155 14.2 *L 0 *D NAND2X1LVT

*CAP
1 *257:0 7.28838e-05
2 *257:1 7.28838e-05
3 *257:3 2.92613e-05
4 *257:4 2.92613e-05

*RES
1 *257:5 *483:Y 8
2 *257:4 *257:5 8
3 *257:3 *257:4 2.0614
4 *257:1 *257:3 8
5 *257:0 *487:B 8
6 *257:0 *257:1 5.16129
*END

*D_NET *258 0.000305353

*CONN
*I *513:Y O *C 35.365 11.03 *L 0 *D OAI21X1LVT
*I *630:A0 I *C 33.465 12.585 *L 0.000884 *D AOI22X2LVT

*CAP
1 *258:0 5.84446e-05
2 *258:1 5.84446e-05
3 *258:3 9.42318e-05
4 *258:4 9.42318e-05

*RES
1 *258:5 *630:A0 8
2 *258:4 *258:5 8
3 *258:3 *258:4 6.22834
4 *258:1 *258:3 8
5 *258:0 *513:Y 8
6 *258:0 *258:1 4.13877
*END

*D_NET *259 0.000521141

*CONN
*I *481:Y O *C 27.93 15.92 *L 0 *D INVX2LVT
*I *494:A1 I *C 27.44 17.6 *L 0.000435 *D OAI21X1LVT
*I *492:B I *C 28.1 17.385 *L 0.000433 *D NAND2BX1LVT

*CAP
1 *259:0 0.000181514
2 *259:1 0.000181514
3 *259:3 1.55078e-05
4 *259:4 1.55078e-05
5 *259:5 2.30931e-05
6 *259:6 2.30931e-05
7 *259:8 4.04552e-05
8 *259:9 4.04552e-05

*RES
1 *259:10 *492:B 8
2 *259:9 *259:10 8
3 *259:8 *259:9 2.09521
4 *259:6 *259:8 8
5 *259:5 *494:A1 8
6 *259:5 *259:6 1.22772
7 *259:4 *259:5 8
8 *259:3 *259:4 0.803164
9 *259:1 *259:3 8
10 *259:0 *481:Y 8
11 *259:0 *259:1 10.3954
*END

*D_NET *260 0.000781122

*CONN
*I *506:A1 I *C 23.84 21.02 *L 0.000435 *D OAI21X1LVT
*I *447:Y O *C 24.95 19.145 *L 0 *D NAND2X2LVT
*I *504:B I *C 24.5 20.805 *L 0.000433 *D NAND2BX1LVT

*CAP
1 *260:0 2.77118e-06
2 *260:1 2.30931e-05
3 *260:3 0.000327013
4 *260:4 2.0322e-05
5 *260:5 0.000327013
6 *260:6 4.04552e-05
7 *260:8 4.04552e-05

*RES
1 *260:10 *504:B 8
2 *260:8 *260:10 8
3 *260:7 *447:Y 8
4 *260:6 *260:8 2.09521
5 *260:5 *260:7 8
6 *260:4 *260:6 8
7 *260:3 *260:5 16.9363
8 *260:1 *260:4 1.08039
9 *260:1 *260:3 8
10 *260:0 *506:A1 8
11 *260:0 *260:1 0.147327
*END

*D_NET *261 0.000435356

*CONN
*I *626:A0 I *C 24.465 17.435 *L 0.000884 *D AOI22X2LVT
*I *494:Y O *C 27.765 17.87 *L 0 *D OAI21X1LVT

*CAP
1 *261:0 0.000129014
2 *261:1 0.000129014
3 *261:3 8.86643e-05
4 *261:4 8.86643e-05

*RES
1 *261:5 *494:Y 8
2 *261:4 *261:5 8
3 *261:3 *261:4 4.592
4 *261:1 *261:3 8
5 *261:0 *626:A0 8
6 *261:0 *261:1 6.85887
*END

*D_NET *262 0.000327475

*CONN
*I *625:A0 I *C 22.265 22.845 *L 0.000884 *D AOI22X2LVT
*I *506:Y O *C 24.165 21.29 *L 0 *D OAI21X1LVT

*CAP
1 *262:0 0.000129014
2 *262:1 0.000129014
3 *262:3 3.4724e-05
4 *262:4 3.4724e-05

*RES
1 *262:5 *506:Y 8
2 *262:4 *262:5 8
3 *262:3 *262:4 1.79839
4 *262:1 *262:3 8
5 *262:0 *625:A0 8
6 *262:0 *262:1 6.85887
*END

*D_NET *263 0.000782317

*CONN
*I *467:Y O *C 24.695 24.455 *L 0 *D NAND2X4LVT
*I *392:B I *C 24.74 29.365 *L 0.000876 *D NAND2BX2LVT
*I *384:A1 I *C 22.1 29.545 *L 0.00179 *D AOI21X4LVT

*CAP
1 *263:0 0.000109615
2 *263:1 0.000313451
3 *263:3 0.000203835
4 *263:4 1.06195e-05
5 *263:5 6.70882e-05
6 *263:6 1.06195e-05
7 *263:7 6.70882e-05

*RES
1 *263:9 *384:A1 8
2 *263:8 *392:B 8
3 *263:7 *263:9 8
4 *263:6 *263:8 8
5 *263:5 *263:7 3.47456
6 *263:4 *263:6 0.549993
7 *263:3 *263:5 8
8 *263:1 *263:4 8
9 *263:1 *263:3 10.8367
10 *263:0 *467:Y 8
11 *263:0 *263:1 5.82758
*END

*D_NET *264 0.000627788

*CONN
*I *384:Y O *C 23.73 29.325 *L 0 *D AOI21X4LVT
*I *382:A I *C 23.965 31.485 *L 0.000233 *D CLKBUFX2LVT
*I *396:B I *C 21.04 34.67 *L 0.00179 *D CLKAND2X12LVT

*CAP
1 *264:0 7.7593e-05
2 *264:1 7.7593e-05
3 *264:3 0.000172946
4 *264:4 0.000172946
5 *264:5 1.44717e-05
6 *264:6 1.44717e-05
7 *264:8 4.88833e-05
8 *264:9 4.88833e-05

*RES
1 *264:10 *396:B 8
2 *264:9 *264:10 8
3 *264:8 *264:9 2.53171
4 *264:6 *264:8 8
5 *264:5 *382:A 8
6 *264:5 *264:6 0.769372
7 *264:4 *264:5 8
8 *264:3 *264:4 8.95703
9 *264:1 *264:3 8
10 *264:0 *384:Y 8
11 *264:0 *264:1 4.12514
*END

*D_NET *265 5.47943e-05

*CONN
*I *632:B0 I *C 22.665 31.295 *L 0.000436 *D OAI2BB1X1LVT
*I *394:Y O *C 22.15 31.395 *L 0 *D NAND2X2LVT

*CAP
1 *265:0 6.15817e-06
2 *265:1 6.15817e-06
3 *265:3 2.1239e-05
4 *265:4 2.1239e-05

*RES
1 *265:5 *394:Y 8
2 *265:4 *265:5 8
3 *265:3 *265:4 1.09999
4 *265:1 *265:3 8
5 *265:0 *632:B0 8
6 *265:0 *265:1 0.327392
*END

*D_NET *266 0.000486806

*CONN
*I *631:D I *C 26.965 33.115 *L 0.000343 *D DFFRHQX1LVT
*I *632:Y O *C 22.535 31.74 *L 0 *D OAI2BB1X1LVT

*CAP
1 *266:0 3.91044e-05
2 *266:1 3.91044e-05
3 *266:3 0.000204299
4 *266:4 0.000204299

*RES
1 *266:5 *632:Y 8
2 *266:4 *266:5 8
3 *266:3 *266:4 10.5808
4 *266:1 *266:3 8
5 *266:0 *631:D 8
6 *266:0 *266:1 2.07894
*END

*D_NET *267 0.00011093

*CONN
*I *630:Y O *C 34.3 12.135 *L 0 *D AOI22X2LVT
*I *372:B I *C 35.5 16.245 *L 0.000433 *D NAND2X1LVT

*CAP
1 *267:0 5.54651e-05
2 *267:1 5.54651e-05

*RES
1 *267:1 *372:B 8
2 *267:0 *630:Y 8
3 *267:0 *267:1 3.92777
*END

*D_NET *268 0.00011565

*CONN
*I *420:B I *C 21.9 12.635 *L 0.000433 *D NAND2BX1LVT
*I *629:Y O *C 20.7 12.135 *L 0 *D AOI22X2LVT

*CAP
1 *268:0 2.4725e-05
2 *268:1 2.4725e-05
3 *268:3 3.31002e-05
4 *268:4 3.31002e-05

*RES
1 *268:5 *629:Y 8
2 *268:4 *268:5 8
3 *268:3 *268:4 1.99706
4 *268:1 *268:3 8
5 *268:0 *420:B 8
6 *268:0 *268:1 1.63034
*END

*D_NET *269 4.35961e-05

*CONN
*I *363:B I *C 27.7 13.965 *L 0.000876 *D NAND2X2LVT
*I *628:Y O *C 26.45 14.415 *L 0 *D AOI22X4LVT

*CAP
1 *269:0 1.1868e-05
2 *269:1 1.1868e-05
3 *269:3 9.93006e-06
4 *269:4 9.93006e-06

*RES
1 *269:5 *628:Y 8
2 *269:4 *269:5 8
3 *269:3 *269:4 0.599118
4 *269:1 *269:3 8
5 *269:0 *363:B 8
6 *269:0 *269:1 0.782563
*END

*D_NET *270 0.00023574

*CONN
*I *435:B I *C 31.3 12.635 *L 0.000433 *D NAND2BX1LVT
*I *627:Y O *C 29.1 12.135 *L 0 *D AOI22X2LVT

*CAP
1 *270:0 3.2637e-05
2 *270:1 3.2637e-05
3 *270:3 8.5233e-05
4 *270:4 8.5233e-05

*RES
1 *270:5 *627:Y 8
2 *270:4 *270:5 8
3 *270:3 *270:4 5.14243
4 *270:1 *270:3 8
5 *270:0 *435:B 8
6 *270:0 *270:1 2.15205
*END

*D_NET *271 0.000106892

*CONN
*I *428:B I *C 22.7 17.385 *L 0.000433 *D NAND2BX1LVT
*I *626:Y O *C 25.3 17.885 *L 0 *D AOI22X2LVT

*CAP
1 *271:0 4.30826e-05
2 *271:1 4.30826e-05
3 *271:3 1.03633e-05
4 *271:4 1.03633e-05

*RES
1 *271:5 *626:Y 8
2 *271:4 *271:5 8
3 *271:3 *271:4 0.506343
4 *271:1 *271:3 8
5 *271:0 *428:B 8
6 *271:0 *271:1 2.16079
*END

*D_NET *272 0.000291619

*CONN
*I *477:B I *C 21.1 24.225 *L 0.000433 *D NAND2BX1LVT
*I *625:Y O *C 23.1 22.395 *L 0 *D AOI22X2LVT

*CAP
1 *272:0 0.000122548
2 *272:1 0.000122548
3 *272:3 2.32617e-05
4 *272:4 2.32617e-05

*RES
1 *272:5 *625:Y 8
2 *272:4 *272:5 8
3 *272:3 *272:4 1.20475
4 *272:1 *272:3 8
5 *272:0 *477:B 8
6 *272:0 *272:1 6.51511
*END

*D_NET *273 0.000220962

*CONN
*I *372:Y O *C 35.755 15.82 *L 0 *D NAND2X1LVT
*I *618:D I *C 34.965 16.015 *L 0.000343 *D DFFRHQX1LVT

*CAP
1 *273:0 6.50912e-05
2 *273:1 6.50912e-05
3 *273:3 4.53896e-05
4 *273:4 4.53896e-05

*RES
1 *273:5 *618:D 8
2 *273:4 *273:5 8
3 *273:3 *273:4 3.19761
4 *273:1 *273:3 8
5 *273:0 *372:Y 8
6 *273:0 *273:1 4.60945
*END

*D_NET *274 0.000502279

*CONN
*I *622:D I *C 22.925 14.185 *L 0.000343 *D DFFRHQX4LVT
*I *420:Y O *C 22.12 11.985 *L 0 *D NAND2BX1LVT

*CAP
1 *274:0 6.3296e-05
2 *274:1 6.3296e-05
3 *274:3 0.000187844
4 *274:4 0.000187844

*RES
1 *274:5 *420:Y 8
2 *274:4 *274:5 8
3 *274:3 *274:4 11.3333
4 *274:1 *274:3 8
5 *274:0 *622:D 8
6 *274:0 *274:1 4.17367
*END

*D_NET *275 0.000423717

*CONN
*I *623:D I *C 32.765 14.005 *L 0.000343 *D DFFRHQX1LVT
*I *363:Y O *C 28.15 14.295 *L 0 *D NAND2X2LVT

*CAP
1 *275:0 9.3955e-06
2 *275:1 9.3955e-06
3 *275:3 0.000202463
4 *275:4 0.000202463

*RES
1 *275:5 *363:Y 8
2 *275:4 *275:5 8
3 *275:3 *275:4 12.2153
4 *275:1 *275:3 8
5 *275:0 *623:D 8
6 *275:0 *275:1 0.619529
*END

*D_NET *276 0.000540627

*CONN
*I *624:D I *C 36.365 14.005 *L 0.000343 *D DFFRHQX1LVT
*I *435:Y O *C 31.52 11.985 *L 0 *D NAND2BX1LVT

*CAP
1 *276:0 6.923e-05
2 *276:1 6.923e-05
3 *276:3 0.000201084
4 *276:4 0.000201084

*RES
1 *276:5 *435:Y 8
2 *276:4 *276:5 8
3 *276:3 *276:4 12.1321
4 *276:1 *276:3 8
5 *276:0 *624:D 8
6 *276:0 *276:1 4.56495
*END

*D_NET *277 0.000176942

*CONN
*I *477:Y O *C 21.32 24.875 *L 0 *D NAND2BX1LVT
*I *621:D I *C 25.765 26.275 *L 0.000343 *D DFFRHQX1LVT

*CAP
1 *277:0 3.75648e-05
2 *277:1 3.75648e-05
3 *277:3 5.09061e-05
4 *277:4 5.09061e-05

*RES
1 *277:5 *621:D 8
2 *277:4 *277:5 8
3 *277:3 *277:4 2.63647
4 *277:1 *277:3 8
5 *277:0 *477:Y 8
6 *277:0 *277:1 1.99709
*END

*D_NET *278 0.00038974

*CONN
*I *619:D I *C 18.325 17.605 *L 0.000343 *D DFFRHQX4LVT
*I *379:Y O *C 20.615 21.62 *L 0 *D NAND3BX1LVT

*CAP
1 *278:0 0.000173968
2 *278:1 0.000173968
3 *278:3 2.09018e-05
4 *278:4 2.09018e-05

*RES
1 *278:5 *379:Y 8
2 *278:4 *278:5 8
3 *278:3 *278:4 1.08253
4 *278:1 *278:3 8
5 *278:0 *619:D 8
6 *278:0 *278:1 9.24883
*END

*D_NET *279 0.000301479

*CONN
*I *617:D I *C 32.565 19.435 *L 0.000343 *D DFFRHQX1LVT
*I *381:Y O *C 34.185 19.48 *L 0 *D OAI21X2LVT

*CAP
1 *279:0 0.000100501
2 *279:1 0.000100501
3 *279:3 5.02387e-05
4 *279:4 5.02387e-05

*RES
1 *279:5 *381:Y 8
2 *279:4 *279:5 8
3 *279:3 *279:4 2.6552
4 *279:1 *279:3 8
5 *279:0 *617:D 8
6 *279:0 *279:1 5.75217
*END

*D_NET *280 0.000486306

*CONN
*I *620:D I *C 22.365 17.425 *L 0.000343 *D DFFRHQX1LVT
*I *428:Y O *C 22.92 18.035 *L 0 *D NAND2BX1LVT

*CAP
1 *280:0 3.98187e-05
2 *280:1 3.98187e-05
3 *280:3 0.000203334
4 *280:4 0.000203334

*RES
1 *280:5 *428:Y 8
2 *280:4 *280:5 8
3 *280:3 *280:4 9.93479
4 *280:1 *280:3 8
5 *280:0 *620:D 8
6 *280:0 *280:1 1.99709
*END

*D_NET *281 0.000584313

*CONN
*I *527:A I *C 25.3 34.485 *L 0.000879 *D CLKBUFX6LVT
*I *665:QN O *C 23.3 36.765 *L 0 *D DFFRX1LVT

*CAP
1 *281:1 2.34011e-05
2 *281:2 2.34011e-05
3 *281:3 9.43954e-05
4 *281:4 9.43954e-05
5 *281:5 0.00017436
6 *281:6 0.00017436

*RES
1 *281:6 *665:QN 8
2 *281:5 *281:6 9.32804
3 *281:4 *281:5 8
4 *281:3 *281:4 4.88883
5 *281:2 *281:3 8
6 *281:1 *281:2 1.24409
7 *527:A *281:1 8
*END

*D_NET *282 0.000719122

*CONN
*I *523:A I *C 19.1 34.675 *L 0.000233 *D BUFX2LVT
*I *524:A I *C 17.1 36.575 *L 0.000884 *D INVX2LVT
*I *616:Y O *C 18.355 34.77 *L 0 *D NOR2X2LVT
*I *597:B I *C 16.2 34.725 *L 0.000233 *D NAND2XLLVT

*CAP
1 *282:2 1.34851e-05
2 *282:3 1.34851e-05
3 *282:4 0.000128706
4 *282:5 0.000128706
5 *282:6 0.000121366
6 *282:7 0.000121366
7 *282:8 1.34851e-05
8 *282:9 1.34851e-05
9 *282:10 1.75508e-05
10 *282:11 2.0322e-05
11 *282:12 3.51016e-05
12 *282:13 2.09378e-05
13 *282:14 2.64801e-05
14 *282:15 3.51016e-05
15 *282:16 3.38699e-06
16 *282:17 6.15817e-06

*RES
1 *282:17 *597:B 8
2 *282:16 *616:Y 8
3 *282:15 *524:A 8
4 *282:14 *282:17 0.327392
5 *282:13 *282:16 0.180066
6 *282:12 *282:15 1.86614
7 *282:11 *282:14 1.08039
8 *282:10 *282:13 0.933068
9 *282:9 *282:12 8
10 *282:8 *282:11 8
11 *282:7 *282:10 8
12 *282:7 *282:9 0.698404
13 *282:6 *282:8 0.698404
14 *282:6 *282:7 5.58723
15 *282:5 *282:6 8
16 *282:4 *282:5 6.8425
17 *282:3 *282:4 8
18 *282:2 *282:3 0.698404
19 *282:1 *282:2 8
20 *523:A *282:1 8
*END

*D_NET *283 7.3769e-05

*CONN
*I *584:B I *C 8.3 19.665 *L 0.000433 *D NAND2X1LVT
*I *599:Y O *C 8.515 22.83 *L 0 *D NOR2X1LVT

*CAP
1 *283:2 2.34615e-05
2 *283:3 2.34615e-05
3 *283:4 1.26773e-05
4 *283:5 1.3423e-05
5 *283:6 7.45721e-07

*RES
1 *283:6 *599:Y 8
2 *283:5 *283:6 0.0489125
3 *283:4 *283:5 0.831512
4 *283:3 *283:4 8
5 *283:2 *283:3 1.37084
6 *283:1 *283:2 8
7 *584:B *283:1 8
*END

*D_NET *284 0.000181937

*CONN
*I *584:A I *C 8.1 19.285 *L 0.000436 *D NAND2X1LVT
*I *598:Y O *C 10.315 24.29 *L 0 *D NOR2X1LVT

*CAP
1 *284:1 1.88916e-05
2 *284:2 1.88916e-05
3 *284:3 5.86539e-05
4 *284:4 5.86539e-05
5 *284:5 1.26773e-05
6 *284:6 1.3423e-05
7 *284:7 7.45721e-07

*RES
1 *284:7 *598:Y 8
2 *284:6 *284:7 0.0489125
3 *284:5 *284:6 0.831512
4 *284:4 *284:5 8
5 *284:3 *284:4 3.42711
6 *284:2 *284:3 8
7 *284:1 *284:2 1.23912
8 *584:A *284:1 8
*END

*D_NET *285 0.00130646

*CONN
*I *583:B I *C 14.7 26.315 *L 0.000876 *D NAND2X2LVT
*I *586:AN I *C 16.3 24.415 *L 0.000234 *D NOR2BX1LVT
*I *577:D I *C 17.335 26.275 *L 0.000873 *D NAND4X2LVT
*I *606:Y O *C 9.74 21.135 *L 0 *D NOR2X4LVT

*CAP
1 *285:0 5.86539e-05
2 *285:1 5.86539e-05
3 *285:3 7.7555e-05
4 *285:5 1.14344e-05
5 *285:6 6.61206e-05
6 *285:7 2.55144e-05
7 *285:8 0.000312038
8 *285:10 2.55144e-05
9 *285:11 0.000312038
10 *285:13 0.00017947
11 *285:15 0.00017947

*RES
1 *285:15 *606:Y 8
2 *285:13 *285:15 11.7716
3 *285:12 *577:D 8
4 *285:11 *285:13 8
5 *285:10 *285:12 8
6 *285:8 *285:11 18.2322
7 *285:7 *285:10 1.49079
8 *285:6 *586:AN 8
9 *285:6 *285:8 8
10 *285:5 *285:7 8
11 *285:3 *285:6 4.33691
12 *285:3 *285:5 0.749992
13 *285:2 *583:B 8
14 *285:1 *285:3 8
15 *285:0 *285:2 8
16 *285:0 *285:1 3.42711
*END

*D_NET *286 0.000960535

*CONN
*I *404:B I *C 16.7 22.705 *L 0.000233 *D AND2XLLVT
*I *605:Y O *C 15.14 21.135 *L 0 *D NOR2X4LVT
*I *577:C I *C 17.595 26.115 *L 0.000879 *D NAND4X2LVT
*I *583:A I *C 15.01 26.12 *L 0.000884 *D NAND2X2LVT

*CAP
1 *286:0 0.000196197
2 *286:1 0.000170522
3 *286:2 0.000196197
4 *286:3 0.000165301
5 *286:4 8.97351e-05
6 *286:6 8.4515e-05
7 *286:7 1.73029e-05
8 *286:10 1.17308e-05
9 *286:11 1.73029e-05
10 *286:12 1.17308e-05

*RES
1 *286:14 *583:A 8
2 *286:13 *577:C 8
3 *286:12 *286:14 8
4 *286:11 *286:13 8
5 *286:10 *286:12 0.685422
6 *286:7 *286:11 1.011
7 *286:6 *286:10 8
8 *286:5 *605:Y 8
9 *286:4 *404:B 8
10 *286:3 *286:7 8
11 *286:3 *286:6 5.54342
12 *286:2 *286:5 8
13 *286:1 *286:4 5.8858
14 *286:1 *286:3 5.29885
15 *286:0 *286:2 11.4637
16 *286:0 *286:1 8
*END

*D_NET *287 0.000112181

*CONN
*I *518:Y O *C 14.93 28.27 *L 0 *D INVX1LVT
*I *574:B0 I *C 14.195 28.01 *L 0.000433 *D OAI21X1LVT
*I *397:B0 I *C 13.195 28.01 *L 0.000433 *D OAI21X1LVT

*CAP
1 *287:0 1.29258e-05
2 *287:1 1.29258e-05
3 *287:3 4.31106e-05
4 *287:4 4.31106e-05
5 *287:5 2.48574e-08
6 *287:7 2.48574e-08
7 *287:8 2.93269e-08
8 *287:9 2.93269e-08

*RES
1 *287:10 *397:B0 8
2 *287:9 *287:10 8
3 *287:8 *287:9 0.00171356
4 *287:7 *287:8 8
5 *287:5 *287:7 0.00163042
6 *287:5 *574:B0 8
7 *287:4 *287:5 8
8 *287:3 *287:4 2.51893
9 *287:1 *287:3 8
10 *287:0 *518:Y 8
11 *287:0 *287:1 0.847817
*END

*D_NET *288 0.000340891

*CONN
*I *404:A I *C 17.1 22.515 *L 0.000233 *D AND2XLLVT
*I *602:Y O *C 19.18 20.805 *L 0 *D NOR2X6LVT
*I *588:A I *C 15.96 22.77 *L 0.00358 *D NAND2X8LVT

*CAP
1 *288:0 3.72861e-06
2 *288:1 3.72861e-06
3 *288:3 5.63077e-05
4 *288:4 5.63077e-05
5 *288:5 9.54523e-05
6 *288:6 9.54523e-05
7 *288:8 1.49567e-05
8 *288:9 1.49567e-05

*RES
1 *288:10 *588:A 8
2 *288:9 *288:10 8
3 *288:8 *288:9 0.873913
4 *288:6 *288:8 8
5 *288:5 *602:Y 8
6 *288:5 *288:6 6.2608
7 *288:4 *288:5 8
8 *288:3 *288:4 3.29003
9 *288:1 *288:3 8
10 *288:0 *404:A 8
11 *288:0 *288:1 0.244562
*END

*D_NET *289 0.00319458

*CONN
*I *556:B0 I *C 29.265 32.925 *L 0.000436 *D OAI2BB1X1LVT
*I *601:Y O *C 9.695 26.085 *L 0 *D NAND2X4LVT
*I *586:B I *C 15.965 24.295 *L 0.000434 *D NOR2BX1LVT

*CAP
1 *289:1 2.15536e-06
2 *289:2 4.61863e-06
3 *289:3 2.46327e-06
4 *289:4 0.000936388
5 *289:5 0.000936388
6 *289:6 0.000255037
7 *289:7 0.000255037
8 *289:8 2.34615e-05
9 *289:9 0.000293269
10 *289:10 7.55664e-05
11 *289:11 0.000269808
12 *289:12 7.55664e-05
13 *289:13 1.98859e-06
14 *289:14 2.34615e-05
15 *289:15 2.23716e-06
16 *289:16 2.34615e-05
17 *289:17 2.48574e-07
18 *289:18 3.48003e-06
19 *289:20 6.71149e-06
20 *289:21 3.23146e-06

*RES
1 *289:21 *586:B 8
2 *289:20 *289:21 0.211954
3 *289:18 *289:20 0.228258
4 *289:17 *601:Y 8
5 *289:16 *289:18 8
6 *289:15 *289:17 0.0163042
7 *289:14 *289:16 1.37084
8 *289:13 *289:15 0.130433
9 *289:12 *289:14 8
10 *289:11 *289:13 8
11 *289:10 *289:12 4.95647
12 *289:9 *289:11 15.7647
13 *289:9 *289:10 8
14 *289:8 *289:9 1.37084
15 *289:7 *289:8 8
16 *289:6 *289:7 16.7281
17 *289:5 *289:6 8
18 *289:4 *289:5 49.4309
19 *289:3 *289:4 8
20 *289:2 *289:3 0.130957
21 *289:1 *289:2 0.114587
22 *556:B0 *289:1 8
*END

*D_NET *290 0.000704159

*CONN
*I *588:B I *C 16.265 22.635 *L 0.00357 *D NAND2X8LVT
*I *353:AN I *C 16.94 21.06 *L 0.000234 *D NOR3BX2LVT
*I *600:Y O *C 15.62 19.015 *L 0 *D NOR2X8LVT

*CAP
1 *290:0 8.52608e-05
2 *290:1 0.000186927
3 *290:3 9.21282e-05
4 *290:4 0.000101667
5 *290:5 9.21282e-05
6 *290:6 7.3024e-05
7 *290:8 7.3024e-05

*RES
1 *290:10 *600:Y 8
2 *290:8 *290:10 8
3 *290:7 *353:AN 8
4 *290:6 *290:8 4.26675
5 *290:5 *290:7 8
6 *290:4 *290:6 8
7 *290:3 *290:5 5.09653
8 *290:1 *290:4 6.6684
9 *290:1 *290:3 8
10 *290:0 *588:B 8
11 *290:0 *290:1 5.59233
*END

*D_NET *291 0.000153653

*CONN
*I *358:A I *C 24.3 27.835 *L 0.000436 *D NAND2X1LVT
*I *595:Y O *C 23.54 27.545 *L 0 *D NAND2XLLVT

*CAP
1 *291:0 1.81666e-05
2 *291:1 1.81666e-05
3 *291:3 5.866e-05
4 *291:4 5.866e-05

*RES
1 *291:5 *595:Y 8
2 *291:4 *291:5 8
3 *291:3 *291:4 3.03806
4 *291:1 *291:3 8
5 *291:0 *358:A 8
6 *291:0 *291:1 0.965807
*END

*D_NET *292 0.000146142

*CONN
*I *580:A I *C 17.85 29.58 *L 0.000233 *D OR2X1LVT
*I *594:Y O *C 18.36 31.58 *L 0 *D NAND3BXLLVT

*CAP
1 *292:1 2.23716e-06
2 *292:2 4.7229e-06
3 *292:3 2.48574e-06
4 *292:4 5.86539e-05
5 *292:5 5.86539e-05
6 *292:6 6.71149e-06
7 *292:7 9.69437e-06
8 *292:8 2.98288e-06

*RES
1 *292:8 *594:Y 8
2 *292:7 *292:8 0.19565
3 *292:6 *292:7 0.440212
4 *292:5 *292:6 8
5 *292:4 *292:5 3.42711
6 *292:3 *292:4 8
7 *292:2 *292:3 0.163042
8 *292:1 *292:2 0.146738
9 *580:A *292:1 8
*END

*D_NET *293 0.000263242

*CONN
*I *593:Y O *C 26.74 24.125 *L 0 *D NAND2XLLVT
*I *406:A I *C 26.9 24.415 *L 0.000436 *D NAND2X1LVT

*CAP
1 *293:0 0.000122856
2 *293:1 0.000122856
3 *293:3 8.76529e-06
4 *293:4 8.76529e-06

*RES
1 *293:5 *406:A 8
2 *293:4 *293:5 8
3 *293:3 *293:4 0.453962
4 *293:1 *293:3 8
5 *293:0 *593:Y 8
6 *293:0 *293:1 6.53148
*END

*D_NET *294 0.000561963

*CONN
*I *355:B0 I *C 19.94 26.06 *L 0.000879 *D OAI21X2LVT
*I *592:Y O *C 17.355 24.46 *L 0 *D NAND2X1LVT

*CAP
1 *294:0 0.000119161
2 *294:1 0.000119161
3 *294:3 0.000161821
4 *294:4 0.000161821

*RES
1 *294:5 *592:Y 8
2 *294:4 *294:5 8
3 *294:3 *294:4 8.38084
4 *294:1 *294:3 8
5 *294:0 *355:B0 8
6 *294:0 *294:1 6.33504
*END

*D_NET *295 0.000458658

*CONN
*I *566:B0 I *C 32.065 24.455 *L 0.000436 *D OAI2BB1X1LVT
*I *591:Y O *C 31.555 22.66 *L 0 *D NAND2X1LVT

*CAP
1 *295:1 2.15536e-06
2 *295:2 4.61863e-06
3 *295:3 2.46327e-06
4 *295:4 1.34851e-05
5 *295:5 1.34851e-05
6 *295:6 0.000207838
7 *295:7 0.000211225
8 *295:8 3.38699e-06

*RES
1 *295:8 *591:Y 8
2 *295:7 *295:8 0.180066
3 *295:6 *295:7 11.0495
4 *295:5 *295:6 8
5 *295:4 *295:5 0.698404
6 *295:3 *295:4 8
7 *295:2 *295:3 0.130957
8 *295:1 *295:2 0.114587
9 *566:B0 *295:1 8
*END

*D_NET *296 0.00057418

*CONN
*I *567:B0 I *C 30.065 24.455 *L 0.000436 *D OAI2BB1X1LVT
*I *590:Y O *C 30.34 22.995 *L 0 *D NAND2XLLVT

*CAP
1 *296:1 2.15536e-06
2 *296:2 0.000238629
3 *296:3 0.000236474
4 *296:4 4.04552e-05
5 *296:5 4.04552e-05
6 *296:6 5.54235e-06
7 *296:7 8.00562e-06
8 *296:8 2.46327e-06

*RES
1 *296:8 *590:Y 8
2 *296:7 *296:8 0.130957
3 *296:6 *296:7 0.294653
4 *296:5 *296:6 8
5 *296:4 *296:5 2.09521
6 *296:3 *296:4 8
7 *296:2 *296:3 12.5719
8 *296:1 *296:2 0.114587
9 *567:B0 *296:1 8
*END

*D_NET *297 0.000153653

*CONN
*I *400:A I *C 28.3 22.705 *L 0.000436 *D NAND2X1LVT
*I *589:Y O *C 28.14 22.995 *L 0 *D NAND2XLLVT

*CAP
1 *297:0 1.81666e-05
2 *297:1 1.81666e-05
3 *297:3 5.866e-05
4 *297:4 5.866e-05

*RES
1 *297:5 *589:Y 8
2 *297:4 *297:5 8
3 *297:3 *297:4 3.03806
4 *297:1 *297:3 8
5 *297:0 *400:A 8
6 *297:0 *297:1 0.965807
*END

*D_NET *298 0.00127236

*CONN
*I *579:D I *C 37.365 34.525 *L 0.000343 *D DFFRHQX1LVT
*I *587:Y O *C 28.33 35.005 *L 0 *D AND2XLLVT

*CAP
1 *298:1 3.72224e-06
2 *298:2 1.2312e-05
3 *298:3 8.58979e-06
4 *298:4 0.000601699
5 *298:5 0.000601699
6 *298:6 2.0322e-05
7 *298:7 2.21694e-05
8 *298:8 1.84745e-06

*RES
1 *298:8 *587:Y 8
2 *298:7 *298:8 0.0982177
3 *298:6 *298:7 1.08039
4 *298:5 *298:6 8
5 *298:4 *298:5 31.2787
6 *298:3 *298:4 8
7 *298:2 *298:3 0.491638
8 *298:1 *298:2 0.213043
9 *579:D *298:1 8
*END

*D_NET *299 1.62663e-05

*CONN
*I *586:Y O *C 15.92 24.085 *L 0 *D NOR2BX1LVT
*I *351:A I *C 16.5 24.225 *L 0.000436 *D INVX1LVT

*CAP
1 *299:0 6.96006e-06
2 *299:1 6.96006e-06
3 *299:3 1.17308e-06
4 *299:4 1.17308e-06

*RES
1 *299:5 *351:A 8
2 *299:4 *299:5 8
3 *299:3 *299:4 0.0685422
4 *299:1 *299:3 8
5 *299:0 *586:Y 8
6 *299:0 *299:1 0.456517
*END

*D_NET *300 0.000417511

*CONN
*I *565:B0 I *C 31.065 24.455 *L 0.000436 *D OAI2BB1X1LVT
*I *585:Y O *C 30.94 22.995 *L 0 *D NAND2XLLVT

*CAP
1 *300:1 2.15536e-06
2 *300:2 4.61863e-06
3 *300:3 2.46327e-06
4 *300:4 4.04552e-05
5 *300:5 4.04552e-05
6 *300:6 0.000128706
7 *300:7 0.000128706
8 *300:8 2.69701e-05
9 *300:9 2.69701e-05
10 *300:10 5.54235e-06
11 *300:11 8.00562e-06
12 *300:12 2.46327e-06

*RES
1 *300:12 *585:Y 8
2 *300:11 *300:12 0.130957
3 *300:10 *300:11 0.294653
4 *300:9 *300:10 8
5 *300:8 *300:9 1.39681
6 *300:7 *300:8 8
7 *300:6 *300:7 6.8425
8 *300:5 *300:6 8
9 *300:4 *300:5 2.09521
10 *300:3 *300:4 8
11 *300:2 *300:3 0.130957
12 *300:1 *300:2 0.114587
13 *565:B0 *300:1 8
*END

*D_NET *301 0.000246554

*CONN
*I *584:Y O *C 8.555 19.24 *L 0 *D NAND2X1LVT
*I *403:B I *C 11.745 22.8 *L 0.000878 *D NOR3X2LVT

*CAP
1 *301:0 8.74979e-05
2 *301:1 8.74979e-05
3 *301:3 3.57788e-05
4 *301:4 3.57788e-05

*RES
1 *301:5 *403:B 8
2 *301:4 *301:5 8
3 *301:3 *301:4 2.09054
4 *301:1 *301:3 8
5 *301:0 *584:Y 8
6 *301:0 *301:1 5.73907
*END

*D_NET *302 4.96201e-05

*CONN
*I *397:A0 I *C 12.825 27.7 *L 0.000436 *D OAI21X1LVT
*I *574:A0 I *C 13.825 27.7 *L 0.000436 *D OAI21X1LVT
*I *583:Y O *C 15.15 25.985 *L 0 *D NAND2X2LVT

*CAP
1 *302:0 2.48574e-08
2 *302:1 8.97351e-06
3 *302:3 8.94865e-06
4 *302:4 2.93269e-08
5 *302:5 1.58072e-05
6 *302:6 2.93269e-08
7 *302:7 1.58072e-05

*RES
1 *302:9 *583:Y 8
2 *302:8 *574:A0 8
3 *302:7 *302:9 8
4 *302:6 *302:8 8
5 *302:5 *302:7 0.923606
6 *302:4 *302:6 0.00171356
7 *302:3 *302:5 8
8 *302:1 *302:4 8
9 *302:1 *302:3 0.58695
10 *302:0 *397:A0 8
11 *302:0 *302:1 0.00163042
*END

*D_NET *303 0.000262335

*CONN
*I *582:Y O *C 9.74 24.115 *L 0 *D OR3X1LVT
*I *403:C I *C 11.52 22.68 *L 0.000878 *D NOR3X2LVT

*CAP
1 *303:0 7.13406e-05
2 *303:1 7.13406e-05
3 *303:3 5.98269e-05
4 *303:4 5.98269e-05

*RES
1 *303:5 *403:C 8
2 *303:4 *303:5 8
3 *303:3 *303:4 3.49565
4 *303:1 *303:3 8
5 *303:0 *582:Y 8
6 *303:0 *303:1 4.6793
*END

*D_NET *304 0.000718084

*CONN
*I *588:Y O *C 16.405 22.475 *L 0 *D NAND2X8LVT
*I *356:A I *C 15.965 25.895 *L 0.000233 *D CLKBUFX2LVT
*I *574:A1 I *C 14.04 27.86 *L 0.000435 *D OAI21X1LVT
*I *397:A1 I *C 13.04 27.86 *L 0.000435 *D OAI21X1LVT
*I *576:A I *C 13.615 26.15 *L 0.000879 *D NOR2X2LVT
*I *361:A I *C 12.995 29.55 *L 0.00179 *D NOR2X4LVT

*CAP
1 *304:0 6.21434e-05
2 *304:1 0.000159833
3 *304:3 9.76895e-05
4 *304:4 2.11154e-05
5 *304:5 8.00625e-05
6 *304:6 2.11154e-05
7 *304:7 0.000138716
8 *304:9 9.64856e-05
9 *304:13 3.78317e-05
10 *304:16 1.49144e-06
11 *304:17 1.49144e-06
12 *304:18 2.93269e-08
13 *304:20 2.93269e-08
14 *304:21 2.48574e-08
15 *304:22 2.48574e-08

*RES
1 *304:22 *361:A 8
2 *304:21 *304:22 0.00163042
3 *304:20 *304:21 8
4 *304:18 *304:20 0.00171356
5 *304:17 *576:A 8
6 *304:17 *304:18 8
7 *304:16 *304:17 0.097825
8 *304:13 *304:16 8
9 *304:12 *397:A1 8
10 *304:10 *574:A1 8
11 *304:9 *304:13 2.21049
12 *304:9 *304:12 8
13 *304:8 *356:A 8
14 *304:7 *304:10 8
15 *304:7 *304:9 3.42711
16 *304:6 *304:8 8
17 *304:5 *304:7 4.67801
18 *304:4 *304:6 1.23376
19 *304:3 *304:5 8
20 *304:1 *304:4 8
21 *304:1 *304:3 6.40754
22 *304:0 *588:Y 8
23 *304:0 *304:1 4.07604
*END

*D_NET *305 0.000198473

*CONN
*I *571:A I *C 21.065 26.14 *L 0.000878 *D OR2X6LVT
*I *365:A I *C 15.865 27.82 *L 0.000878 *D OR2X6LVT
*I *398:Y O *C 19.585 29.74 *L 0 *D OAI21X2LVT

*CAP
1 *305:0 1.84745e-06
2 *305:1 1.29322e-05
3 *305:3 1.10847e-05
4 *305:5 8.63044e-05
5 *305:6 8.63044e-05

*RES
1 *305:7 *398:Y 8
2 *305:6 *305:7 8
3 *305:5 *305:6 4.46978
4 *305:3 *305:5 8
5 *305:1 *365:A 8
6 *305:1 *305:3 0.589306
7 *305:0 *571:A 8
8 *305:0 *305:1 0.0982177
*END

*D_NET *306 0.000347314

*CONN
*I *576:B I *C 13.365 25.87 *L 0.000878 *D NOR2X2LVT
*I *361:B I *C 12.685 29.43 *L 0.00178 *D NOR2X4LVT
*I *367:Y O *C 12.61 25.935 *L 0 *D NAND2X6LVT

*CAP
1 *306:0 2.48574e-08
2 *306:1 0.000166296
3 *306:3 2.93269e-08
4 *306:4 0.000166271
5 *306:5 2.93269e-08
6 *306:6 7.33173e-06
7 *306:8 7.33173e-06

*RES
1 *306:10 *367:Y 8
2 *306:8 *306:10 8
3 *306:7 *361:B 8
4 *306:6 *306:8 0.428389
5 *306:5 *306:7 8
6 *306:4 *306:6 8
7 *306:3 *306:5 0.00171356
8 *306:1 *306:4 10.9059
9 *306:1 *306:3 8
10 *306:0 *576:B 8
11 *306:0 *306:1 0.00163042
*END

*D_NET *307 0.000185622

*CONN
*I *355:A1 I *C 19.1 25.94 *L 0.000882 *D OAI21X2LVT
*I *577:Y O *C 18.34 25.635 *L 0 *D NAND4X2LVT

*CAP
1 *307:0 4.15677e-05
2 *307:1 4.15677e-05
3 *307:3 5.12432e-05
4 *307:4 5.12432e-05

*RES
1 *307:5 *577:Y 8
2 *307:4 *307:5 8
3 *307:3 *307:4 2.65393
4 *307:1 *307:3 8
5 *307:0 *355:A1 8
6 *307:0 *307:1 2.2099
*END

*D_NET *308 0.000894014

*CONN
*I *573:D I *C 39.565 36.535 *L 0.000343 *D DFFRHQX1LVT
*I *575:Y O *C 33.93 35.005 *L 0 *D AND2XLLVT

*CAP
1 *308:1 3.72224e-06
2 *308:2 0.000103936
3 *308:3 0.000100214
4 *308:4 0.000332601
5 *308:5 0.000332601
6 *308:6 8.62144e-06
7 *308:7 1.04689e-05
8 *308:8 1.84745e-06

*RES
1 *308:8 *575:Y 8
2 *308:7 *308:8 0.0982177
3 *308:6 *308:7 0.458349
4 *308:5 *308:6 8
5 *308:4 *308:5 17.3282
6 *308:3 *308:4 8
7 *308:2 *308:3 5.73578
8 *308:1 *308:2 0.213043
9 *573:D *308:1 8
*END

*D_NET *309 0.000365625

*CONN
*I *360:A I *C 12.345 27.84 *L 0.000434 *D BUFX3LVT
*I *576:Y O *C 13.755 26.03 *L 0 *D NOR2X2LVT
*I *365:B I *C 15.5 28.025 *L 0.000878 *D OR2X6LVT

*CAP
1 *309:0 6.71149e-06
2 *309:1 9.19723e-06
3 *309:3 2.48574e-06
4 *309:4 4.72163e-05
5 *309:5 0.000126399
6 *309:6 4.72163e-05
7 *309:7 0.000126399

*RES
1 *309:9 *365:B 9.84
2 *309:8 *576:Y 9.84
3 *309:7 *309:9 9.84
4 *309:6 *309:8 9.84
5 *309:5 *309:7 9.08407
6 *309:4 *309:6 3.39335
7 *309:3 *309:5 9.84
8 *309:1 *309:4 9.84
9 *309:1 *309:3 0.200541
10 *309:0 *360:A 9.84
11 *309:0 *309:1 0.541461
*END

*D_NET *310 0.00284525

*CONN
*I *568:D I *C 39.565 27.685 *L 0.000343 *D DFFRHQX1LVT
*I *355:Y O *C 19.785 26.32 *L 0 *D OAI21X2LVT

*CAP
1 *310:0 7.81671e-05
2 *310:1 7.81671e-05
3 *310:3 0.00134446
4 *310:4 0.00134446

*RES
1 *310:5 *355:Y 10.24
2 *310:4 *310:5 10.24
3 *310:3 *310:4 89.5965
4 *310:1 *310:3 10.24
5 *310:0 *568:D 10.24
6 *310:0 *310:1 5.7266
*END

*D_NET *311 0.00171303

*CONN
*I *569:D I *C 39.565 22.855 *L 0.000343 *D DFFRHQX1LVT
*I *572:Y O *C 31.935 22.22 *L 0 *D OAI2BB1X1LVT

*CAP
1 *311:1 3.72224e-06
2 *311:2 6.01285e-06
3 *311:3 2.29061e-06
4 *311:4 0.000724875
5 *311:5 0.000724875
6 *311:6 0.000123471
7 *311:7 0.000125627
8 *311:8 2.15536e-06

*RES
1 *311:8 *572:Y 8
2 *311:7 *311:8 0.114587
3 *311:6 *311:7 6.56422
4 *311:5 *311:6 8
5 *311:4 *311:5 37.6171
6 *311:3 *311:4 8
7 *311:2 *311:3 0.131104
8 *311:1 *311:2 0.213043
9 *569:D *311:1 8
*END

*D_NET *312 0.00148097

*CONN
*I *559:D I *C 35.965 27.685 *L 0.000343 *D DFFRHQX1LVT
*I *358:Y O *C 24.755 27.88 *L 0 *D NAND2X1LVT

*CAP
1 *312:0 1.66069e-05
2 *312:1 1.66069e-05
3 *312:3 0.00072388
4 *312:4 0.00072388

*RES
1 *312:5 *358:Y 8
2 *312:4 *312:5 8
3 *312:3 *312:4 37.611
4 *312:1 *312:3 8
5 *312:0 *559:D 8
6 *312:0 *312:1 0.950501
*END

*D_NET *313 0.0013482

*CONN
*I *564:D I *C 35.765 26.275 *L 0.000343 *D DFFRHQX1LVT
*I *406:Y O *C 27.355 24.46 *L 0 *D NAND2X1LVT

*CAP
1 *313:0 9.7351e-05
2 *313:1 9.7351e-05
3 *313:3 0.000576751
4 *313:4 0.000576751

*RES
1 *313:5 *406:Y 8
2 *313:4 *313:5 8
3 *313:3 *313:4 29.9637
4 *313:1 *313:3 8
5 *313:0 *564:D 8
6 *313:0 *313:1 5.5719
*END

*D_NET *314 0.000996719

*CONN
*I *560:D I *C 35.965 22.855 *L 0.000343 *D DFFRHQX1LVT
*I *400:Y O *C 28.755 22.66 *L 0 *D NAND2X1LVT

*CAP
1 *314:0 1.66069e-05
2 *314:1 1.66069e-05
3 *314:3 0.000481752
4 *314:4 0.000481752

*RES
1 *314:5 *400:Y 8
2 *314:4 *314:5 8
3 *314:3 *314:4 25.0573
4 *314:1 *314:3 8
5 *314:0 *560:D 8
6 *314:0 *314:1 0.950501
*END

*D_NET *315 0.00125659

*CONN
*I *561:D I *C 39.365 26.275 *L 0.000343 *D DFFRHQX1LVT
*I *567:Y O *C 29.935 24.9 *L 0 *D OAI2BB1X1LVT

*CAP
1 *315:1 3.72224e-06
2 *315:2 6.01285e-06
3 *315:3 2.29061e-06
4 *315:4 0.000578561
5 *315:5 0.000578561
6 *315:6 4.15677e-05
7 *315:7 4.3723e-05
8 *315:8 2.15536e-06

*RES
1 *315:8 *567:Y 8
2 *315:7 *315:8 0.114587
3 *315:6 *315:7 2.2099
4 *315:5 *315:6 8
5 *315:4 *315:5 30.299
6 *315:3 *315:4 8
7 *315:2 *315:3 0.131104
8 *315:1 *315:2 0.213043
9 *561:D *315:1 8
*END

*D_NET *316 0.000971179

*CONN
*I *562:D I *C 39.565 24.265 *L 0.000343 *D DFFRHQX1LVT
*I *566:Y O *C 31.935 24.9 *L 0 *D OAI2BB1X1LVT

*CAP
1 *316:1 3.72224e-06
2 *316:2 3.40728e-05
3 *316:3 3.03506e-05
4 *316:4 0.000442895
5 *316:5 0.000442895
6 *316:6 6.46608e-06
7 *316:7 8.62144e-06
8 *316:8 2.15536e-06

*RES
1 *316:8 *566:Y 8
2 *316:7 *316:8 0.114587
3 *316:6 *316:7 0.343762
4 *316:5 *316:6 8
5 *316:4 *316:5 22.9858
6 *316:3 *316:4 8
7 *316:2 *316:3 1.73712
8 *316:1 *316:2 0.213043
9 *562:D *316:1 8
*END

*D_NET *317 0.00081587

*CONN
*I *563:D I *C 35.965 24.265 *L 0.000343 *D DFFRHQX1LVT
*I *565:Y O *C 30.935 24.9 *L 0 *D OAI2BB1X1LVT

*CAP
1 *317:1 3.72224e-06
2 *317:2 1.68933e-05
3 *317:3 1.3171e-05
4 *317:4 0.000335618
5 *317:5 0.000335618
6 *317:6 5.32682e-05
7 *317:7 5.54235e-05
8 *317:8 2.15536e-06

*RES
1 *317:8 *565:Y 8
2 *317:7 *317:8 0.114587
3 *317:6 *317:7 2.83194
4 *317:5 *317:6 8
5 *317:4 *317:5 17.4161
6 *317:3 *317:4 8
7 *317:2 *317:3 0.753846
8 *317:1 *317:2 0.213043
9 *563:D *317:1 8
*END

*D_NET *318 0.0010365

*CONN
*I *557:D I *C 39.365 31.105 *L 0.000343 *D DFFRHQX1LVT
*I *558:Y O *C 35.72 33.295 *L 0 *D NOR2BX1LVT

*CAP
1 *318:1 3.72224e-06
2 *318:2 1.68933e-05
3 *318:3 1.3171e-05
4 *318:4 0.000497047
5 *318:5 0.000497047
6 *318:6 3.07909e-06
7 *318:7 4.31072e-06
8 *318:8 1.23163e-06

*RES
1 *318:8 *558:Y 8
2 *318:7 *318:8 0.0654785
3 *318:6 *318:7 0.163696
4 *318:5 *318:6 8
5 *318:4 *318:5 26.091
6 *318:3 *318:4 8
7 *318:2 *318:3 0.753846
8 *318:1 *318:2 0.213043
9 *557:D *318:1 8
*END

*D_NET *319 0.000845239

*CONN
*I *555:D I *C 35.365 36.535 *L 0.000343 *D DFFRHQX1LVT
*I *556:Y O *C 29.135 32.48 *L 0 *D OAI2BB1X1LVT

*CAP
1 *319:1 4.00281e-06
2 *319:2 6.46608e-06
3 *319:3 2.46327e-06
4 *319:4 0.000161821
5 *319:5 0.000161821
6 *319:6 0.000252177
7 *319:7 0.000254332
8 *319:8 2.15536e-06

*RES
1 *319:8 *556:Y 8
2 *319:7 *319:8 0.114587
3 *319:6 *319:7 13.4067
4 *319:5 *319:6 8
5 *319:4 *319:5 8.38084
6 *319:3 *319:4 8
7 *319:2 *319:3 0.130957
8 *319:1 *319:2 0.212805
9 *555:D *319:1 8
*END

*D_NET *320 0.000998856

*CONN
*I *553:D I *C 39.565 33.115 *L 0.000343 *D DFFRHQX1LVT
*I *554:Y O *C 34.92 33.295 *L 0 *D NOR2BX1LVT

*CAP
1 *320:1 3.72224e-06
2 *320:2 6.01285e-06
3 *320:3 2.29061e-06
4 *320:4 0.000483562
5 *320:5 0.000483562
6 *320:6 8.62144e-06
7 *320:7 9.85307e-06
8 *320:8 1.23163e-06

*RES
1 *320:8 *554:Y 8
2 *320:7 *320:8 0.0654785
3 *320:6 *320:7 0.458349
4 *320:5 *320:6 8
5 *320:4 *320:5 25.3926
6 *320:3 *320:4 8
7 *320:2 *320:3 0.131104
8 *320:1 *320:2 0.213043
9 *553:D *320:1 8
*END

*D_NET *321 0.000997649

*CONN
*I *550:D I *C 39.165 29.695 *L 0.000343 *D DFFRHQX1LVT
*I *551:Y O *C 35.52 30.925 *L 0 *D NOR2BX1LVT

*CAP
1 *321:1 3.72224e-06
2 *321:2 6.01285e-06
3 *321:3 2.29061e-06
4 *321:4 0.000482959
5 *321:5 0.000482959
6 *321:6 8.62144e-06
7 *321:7 9.85307e-06
8 *321:8 1.23163e-06

*RES
1 *321:8 *551:Y 8
2 *321:7 *321:8 0.0654785
3 *321:6 *321:7 0.458349
4 *321:5 *321:6 8
5 *321:4 *321:5 25.375
6 *321:3 *321:4 8
7 *321:2 *321:3 0.131104
8 *321:1 *321:2 0.213043
9 *550:D *321:1 8
*END

*D_NET *322 0.000592674

*CONN
*I *547:D I *C 35.165 20.845 *L 0.000343 *D DFFRHQX1LVT
*I *548:Y O *C 32.12 27.505 *L 0 *D NOR2BX1LVT

*CAP
1 *322:1 3.72224e-06
2 *322:2 6.01285e-06
3 *322:3 2.29061e-06
4 *322:4 0.000280471
5 *322:5 0.000280471
6 *322:6 8.62144e-06
7 *322:7 9.85307e-06
8 *322:8 1.23163e-06

*RES
1 *322:8 *548:Y 8
2 *322:7 *322:8 0.0654785
3 *322:6 *322:7 0.458349
4 *322:5 *322:6 8
5 *322:4 *322:5 14.5874
6 *322:3 *322:4 8
7 *322:2 *322:3 0.131104
8 *322:1 *322:2 0.213043
9 *547:D *322:1 8
*END

*D_NET *323 0.00111741

*CONN
*I *544:D I *C 39.165 20.845 *L 0.000343 *D DFFRHQX1LVT
*I *545:Y O *C 31.32 27.505 *L 0 *D NOR2BX1LVT

*CAP
1 *323:1 3.72224e-06
2 *323:2 1.68933e-05
3 *323:3 1.3171e-05
4 *323:4 0.000537502
5 *323:5 0.000537502
6 *323:6 3.07909e-06
7 *323:7 4.31072e-06
8 *323:8 1.23163e-06

*RES
1 *323:8 *545:Y 8
2 *323:7 *323:8 0.0654785
3 *323:6 *323:7 0.163696
4 *323:5 *323:6 8
5 *323:4 *323:5 28.1862
6 *323:3 *323:4 8
7 *323:2 *323:3 0.753846
8 *323:1 *323:2 0.213043
9 *544:D *323:1 8
*END

*D_NET *324 0.00100127

*CONN
*I *541:D I *C 39.565 17.425 *L 0.000343 *D DFFRHQX1LVT
*I *542:Y O *C 31.12 20.665 *L 0 *D NOR2BX1LVT

*CAP
1 *324:1 3.72224e-06
2 *324:2 6.01285e-06
3 *324:3 2.29061e-06
4 *324:4 0.000484769
5 *324:5 0.000484769
6 *324:6 8.62144e-06
7 *324:7 9.85307e-06
8 *324:8 1.23163e-06

*RES
1 *324:8 *542:Y 8
2 *324:7 *324:8 0.0654785
3 *324:6 *324:7 0.458349
4 *324:5 *324:6 8
5 *324:4 *324:5 25.4277
6 *324:3 *324:4 8
7 *324:2 *324:3 0.131104
8 *324:1 *324:2 0.213043
9 *541:D *324:1 8
*END

*D_NET *325 2.40521e-05

*CONN
*I *537:E I *C 9.7 13.775 *L 0.000176 *D TLATNTSCAX2HVT
*I *540:Y O *C 9.53 14.59 *L 0 *D INVX1LVT

*CAP
1 *325:0 2.72236e-06
2 *325:1 2.72236e-06
3 *325:3 9.30367e-06
4 *325:4 9.30367e-06

*RES
1 *325:5 *540:Y 8
2 *325:4 *325:5 8
3 *325:3 *325:4 0.56416
4 *325:1 *325:3 8
5 *325:0 *537:E 8
6 *325:0 *325:1 0.178535
*END

*D_NET *326 0.000123579

*CONN
*I *654:B I *C 14.5 30.875 *L 0.000433 *D NAND2X1LVT
*I *603:Y O *C 15.12 31.62 *L 0 *D NAND2BXLLVT

*CAP
1 *326:1 4.97147e-06
2 *326:2 7.45721e-06
3 *326:3 2.48574e-06
4 *326:4 3.51923e-05
5 *326:5 3.51923e-05
6 *326:6 1.81459e-05
7 *326:7 1.91402e-05
8 *326:8 9.94295e-07

*RES
1 *326:8 *603:Y 8
2 *326:7 *326:8 0.0652167
3 *326:6 *326:7 1.1902
4 *326:5 *326:6 8
5 *326:4 *326:5 2.05627
6 *326:3 *326:4 8
7 *326:2 *326:3 0.163042
8 *326:1 *326:2 0.326083
9 *654:B *326:1 8
*END

*D_NET *327 0.000802829

*CONN
*I *578:B I *C 16.9 29.925 *L 0.000433 *D NAND2X1LVT
*I *652:C I *C 15.7 29.735 *L 0.000432 *D NAND3BX1LVT
*I *604:Y O *C 15.35 29.405 *L 0 *D NAND2X2LVT
*I *518:A I *C 14.7 27.645 *L 0.000436 *D INVX1LVT

*CAP
1 *327:1 6.15817e-06
2 *327:2 4.43388e-05
3 *327:3 3.81807e-05
4 *327:4 7.74018e-05
5 *327:5 0.000182979
6 *327:6 2.21231e-05
7 *327:7 0.000105577
8 *327:8 2.53545e-05
9 *327:9 3.52975e-05
10 *327:10 3.23146e-06
11 *327:11 0.000125281
12 *327:13 2.48574e-06
13 *327:14 8.74979e-05
14 *327:16 2.34615e-05
15 *327:17 2.34615e-05

*RES
1 *327:18 *518:A 8
2 *327:17 *327:18 8
3 *327:16 *327:17 1.37084
4 *327:14 *327:16 8
5 *327:13 *604:Y 8
6 *327:11 *327:14 5.73907
7 *327:11 *327:13 0.163042
8 *327:10 *652:C 8
9 *327:9 *327:11 2.31519
10 *327:8 *327:10 0.211954
11 *327:7 *327:9 8
12 *327:6 *327:8 1.45107
13 *327:5 *327:7 6.1688
14 *327:5 *327:6 8
15 *327:4 *327:5 4.16446
16 *327:3 *327:4 8
17 *327:2 *327:3 2.02983
18 *327:1 *327:2 0.327392
19 *578:B *327:1 8
*END

*D_NET *328 0.000514581

*CONN
*I *652:B I *C 15.9 29.735 *L 0.000435 *D NAND3BX1LVT
*I *596:Y O *C 19.355 31.3 *L 0 *D NAND2X1LVT
*I *398:B0 I *C 19.74 29.48 *L 0.000879 *D OAI21X2LVT

*CAP
1 *328:0 9.0833e-05
2 *328:1 9.60675e-05
3 *328:3 8.50481e-06
4 *328:4 5.23445e-06
5 *328:5 8.50481e-06
6 *328:6 0.000152718
7 *328:8 0.000152718

*RES
1 *328:10 *398:B0 8
2 *328:8 *328:10 8
3 *328:7 *596:Y 8
4 *328:6 *328:8 7.90942
5 *328:5 *328:7 8
6 *328:4 *328:6 8
7 *328:3 *328:5 0.496931
8 *328:1 *328:4 0.278283
9 *328:1 *328:3 8
10 *328:0 *652:B 8
11 *328:0 *328:1 4.82904
*END

*D_NET *329 0.00050346

*CONN
*I *640:B0 I *C 15.1 34.485 *L 0.000233 *D OA21X1LVT
*I *578:A I *C 16.7 29.545 *L 0.000436 *D NAND2X1LVT
*I *597:Y O *C 16.34 34.385 *L 0 *D NAND2XLLVT

*CAP
1 *329:2 1.34851e-05
2 *329:3 1.34851e-05
3 *329:4 1.17005e-05
4 *329:5 1.17005e-05
5 *329:6 1.34851e-05
6 *329:7 0.000148336
7 *329:8 0.000134851
8 *329:9 7.02032e-05
9 *329:10 5.54235e-06
10 *329:11 7.02032e-05
11 *329:12 8.00562e-06
12 *329:14 2.46327e-06

*RES
1 *329:14 *597:Y 8
2 *329:12 *329:14 0.130957
3 *329:11 *578:A 8
4 *329:10 *329:12 0.294653
5 *329:9 *329:11 3.73227
6 *329:8 *329:10 8
7 *329:7 *329:9 8
8 *329:7 *329:8 6.98404
9 *329:6 *329:7 0.698404
10 *329:5 *329:6 8
11 *329:4 *329:5 0.622045
12 *329:3 *329:4 8
13 *329:2 *329:3 0.698404
14 *329:1 *329:2 8
15 *640:B0 *329:1 8
*END

*D_NET *330 0.00113967

*CONN
*I *539:E I *C 17.5 23.085 *L 0.000176 *D TLATNTSCAX2HVT
*I *580:Y O *C 18.15 29.46 *L 0 *D OR2X1LVT

*CAP
1 *330:2 0.000198218
2 *330:3 0.000198218
3 *330:4 0.000370375
4 *330:5 0.000371618
5 *330:6 1.24287e-06

*RES
1 *330:6 *580:Y 8
2 *330:5 *330:6 0.0815208
3 *330:4 *330:5 24.2932
4 *330:3 *330:4 8
5 *330:2 *330:3 11.0446
6 *330:1 *330:2 8
7 *539:E *330:1 8
*END

*D_NET *331 0.00146613

*CONN
*I *596:B I *C 19.1 30.875 *L 0.000433 *D NAND2X1LVT
*I *640:A0 I *C 14.7 34.485 *L 0.000233 *D OA21X1LVT
*I *395:B I *C 22.9 32.965 *L 0.000878 *D NOR2BX2LVT
*I *615:Y O *C 17.95 32.88 *L 0 *D OR2X1LVT
*I *437:B I *C 19.5 31.065 *L 0.000234 *D OR2XLLVT

*CAP
1 *331:0 5.86539e-05
2 *331:1 0.000193142
3 *331:2 0.000148688
4 *331:3 1.36716e-05
5 *331:4 0.000321157
6 *331:6 9.00337e-05
7 *331:7 7.55102e-05
8 *331:9 0.000141687
9 *331:11 8.84151e-05
10 *331:12 7.55102e-05
11 *331:13 8.5624e-05
12 *331:14 8.84151e-05
13 *331:16 8.5624e-05

*RES
1 *331:19 *437:B 8
2 *331:16 *331:19 8
3 *331:15 *615:Y 8
4 *331:14 *395:B 8
5 *331:13 *331:16 4.82392
6 *331:12 *331:15 8
7 *331:11 *331:14 5.79905
8 *331:9 *331:13 8
9 *331:7 *331:12 4.30012
10 *331:6 *331:11 8
11 *331:5 *640:A0 8
12 *331:4 *331:9 9.29338
13 *331:4 *596:B 8
14 *331:3 *331:7 8
15 *331:2 *331:6 5.26061
16 *331:2 *331:5 8
17 *331:1 *331:4 11.7716
18 *331:1 *331:3 0.896729
19 *331:0 *331:2 3.42711
20 *331:0 *331:1 8
*END

*D_NET *332 0.00407136

*CONN
*I *440:AN I *C 30.7 15.865 *L 0.000234 *D NOR2BX1LVT
*I *434:AN I *C 31.1 12.445 *L 0.000234 *D NOR2BX1LVT
*I *430:AN I *C 28.9 14.155 *L 0.000234 *D NOR2BX1LVT
*I *427:B I *C 23.1 19.475 *L 0.000876 *D NAND2X2LVT
*I *419:B I *C 22.7 12.445 *L 0.000233 *D AND2XLLVT
*I *476:B I *C 21.9 24.415 *L 0.000233 *D AND2XLLVT
*I *571:Y O *C 22.365 26.25 *L 0 *D OR2X6LVT

*CAP
1 *332:0 8.87475e-05
2 *332:1 0.00031096
3 *332:4 0.000577168
4 *332:8 0.000561379
5 *332:10 0.000295692
6 *332:11 0.000206424
7 *332:12 0.000295692
8 *332:14 0.00010935
9 *332:17 0.00010935
10 *332:18 0.00055942
11 *332:19 0.00055942
12 *332:20 9.54135e-05
13 *332:22 9.54135e-05
14 *332:23 0.000103463
15 *332:24 0.000103463

*RES
1 *332:24 *571:Y 8
2 *332:23 *332:24 5.18917
3 *332:22 *332:23 8
4 *332:20 *332:22 4.66184
5 *332:19 *476:B 8
6 *332:19 *332:20 8
7 *332:18 *332:19 28.0575
8 *332:17 *332:18 8
9 *332:14 *332:17 5.34279
10 *332:13 *419:B 8
11 *332:12 *427:B 8
12 *332:12 *332:14 8
13 *332:11 *332:13 8
14 *332:10 *332:12 16.6907
15 *332:8 *332:11 11.7494
16 *332:8 *332:10 8
17 *332:7 *430:AN 8
18 *332:4 *332:8 20.2036
19 *332:4 *332:7 8
20 *332:3 *434:AN 8
21 *332:2 *440:AN 8
22 *332:1 *332:4 12.648
23 *332:1 *332:3 8
24 *332:0 *332:2 8
25 *332:0 *332:1 5.28443
*END

*D_NET *333 0.00629218

*CONN
*I *542:B I *C 31.165 20.875 *L 0.000434 *D NOR2BX1LVT
*I *545:B I *C 31.365 27.715 *L 0.000434 *D NOR2BX1LVT
*I *551:B I *C 35.565 31.135 *L 0.000434 *D NOR2BX1LVT
*I *548:B I *C 32.165 27.715 *L 0.000434 *D NOR2BX1LVT
*I *554:B I *C 34.965 33.085 *L 0.000434 *D NOR2BX1LVT
*I *524:Y O *C 17.53 36.44 *L 0 *D INVX2LVT
*I *558:B I *C 35.765 33.085 *L 0.000434 *D NOR2BX1LVT
*I *638:A0 I *C 8.945 34.905 *L 0.000435 *D OAI22X1LVT
*I *657:C I *C 16.1 33.155 *L 0.000233 *D OR3XLLVT
*I *643:B1 I *C 13.1 32.965 *L 0.000435 *D OAI221X1LVT
*I *634:A1 I *C 10.1 29.545 *L 0.000435 *D OAI211X1LVT

*CAP
1 *333:1 4.00281e-06
2 *333:2 8.31353e-06
3 *333:3 4.31072e-06
4 *333:4 2.69701e-05
5 *333:5 2.69701e-05
6 *333:6 0.000124395
7 *333:7 0.000191211
8 *333:8 8.62144e-05
9 *333:9 4.00281e-06
10 *333:10 6.74253e-05
11 *333:11 2.34011e-05
12 *333:13 6.74253e-05
13 *333:14 1.34851e-05
14 *333:15 0.000448931
15 *333:16 1.34851e-05
16 *333:17 0.000635831
17 *333:18 4.31072e-06
18 *333:19 0.000182898
19 *333:20 4.00281e-06
20 *333:21 8.31353e-06
21 *333:22 1.34851e-05
22 *333:24 4.00281e-06
23 *333:25 1.34851e-05
24 *333:27 7.02032e-05
25 *333:28 2.77118e-05
26 *333:29 5.85026e-05
27 *333:30 2.00141e-05
28 *333:31 0.000674253
29 *333:32 1.34851e-05
30 *333:33 4.00281e-06
31 *333:34 0.000674253
32 *333:35 1.34851e-05
33 *333:37 2.00141e-05
34 *333:38 4.31072e-06
35 *333:39 6.03501e-05
36 *333:40 8.31353e-06
37 *333:41 1.84745e-06
38 *333:42 3.84886e-05
39 *333:43 4.00281e-06
40 *333:45 0.000229246
41 *333:47 0.000229246
42 *333:48 8.19037e-05
43 *333:49 8.19037e-05
44 *333:50 0.000506727
45 *333:51 1.34851e-05
46 *333:52 0.000493242
47 *333:53 7.84597e-05
48 *333:54 0.000255037
49 *333:55 7.84597e-05
50 *333:57 0.000264482
51 *333:59 0.000129038
52 *333:60 9.4458e-06
53 *333:61 0.000129038
54 *333:62 1.17308e-05
55 *333:63 9.4458e-06
56 *333:64 1.17308e-05
57 *333:65 9.4458e-06

*RES
1 *333:66 *634:A1 8
2 *333:65 *643:B1 8
3 *333:64 *333:66 8
4 *333:63 *333:65 0.619558
5 *333:62 *333:64 0.685422
6 *333:61 *333:63 8
7 *333:60 *333:62 8
8 *333:59 *333:61 7.53964
9 *333:57 *333:60 0.619558
10 *333:57 *333:59 8
11 *333:55 *657:C 8
12 *333:54 *333:57 16.7281
13 *333:54 *638:A0 8
14 *333:53 *333:55 4.34639
15 *333:52 *333:54 8
16 *333:51 *333:53 8
17 *333:50 *333:52 28.1932
18 *333:50 *333:51 0.698404
19 *333:49 *333:50 8
20 *333:48 *333:49 4.35432
21 *333:47 *333:48 8
22 *333:45 *333:47 11.8729
23 *333:43 *558:B 8
24 *333:42 *333:45 8
25 *333:41 *524:Y 8
26 *333:40 *333:43 0.212805
27 *333:39 *333:42 2.0462
28 *333:39 *333:41 0.0982177
29 *333:38 *333:40 0.229175
30 *333:37 *333:39 1.06402
31 *333:35 *333:38 8
32 *333:34 *333:37 8
33 *333:33 *554:B 8
34 *333:32 *333:35 0.698404
35 *333:31 *333:34 34.9202
36 *333:30 *333:33 0.212805
37 *333:29 *333:32 8
38 *333:28 *333:31 8
39 *333:28 *333:30 0.85122
40 *333:27 *333:29 3.11023
41 *333:27 *333:28 0.622045
42 *333:25 *333:27 8
43 *333:24 *548:B 8
44 *333:22 *333:25 0.698404
45 *333:21 *333:24 0.212805
46 *333:20 *551:B 8
47 *333:19 *333:22 8
48 *333:18 *333:21 0.229175
49 *333:17 *333:20 0.212805
50 *333:17 *333:19 9.72355
51 *333:16 *333:18 8
52 *333:15 *333:17 23.8669
53 *333:14 *333:16 0.698404
54 *333:13 *333:15 8
55 *333:11 *333:14 8
56 *333:10 *333:13 3.49202
57 *333:9 *545:B 8
58 *333:8 *333:11 1.24409
59 *333:8 *333:10 8
60 *333:7 *333:9 0.212805
61 *333:7 *333:8 3.3394
62 *333:6 *333:7 6.61332
63 *333:5 *333:6 8
64 *333:4 *333:5 1.39681
65 *333:3 *333:4 8
66 *333:2 *333:3 0.229175
67 *333:1 *333:2 0.212805
68 *542:B *333:1 8
*END

*D_NET *334 0.00194756

*CONN
*I *533:E I *C 28.7 26.505 *L 0.000176 *D TLATNTSCAX2HVT
*I *578:Y O *C 17.155 29.5 *L 0 *D NAND2X1LVT

*CAP
1 *334:3 8.09104e-05
2 *334:4 8.09104e-05
3 *334:5 0.000210609
4 *334:6 0.000210609
5 *334:7 0.000674253
6 *334:8 0.000674253
7 *334:9 5.54235e-06
8 *334:10 8.00562e-06
9 *334:11 2.46327e-06

*RES
1 *334:11 *578:Y 8
2 *334:10 *334:11 0.130957
3 *334:9 *334:10 0.294653
4 *334:8 *334:9 8
5 *334:7 *334:8 34.9202
6 *334:6 *334:7 8
7 *334:5 *334:6 11.1968
8 *334:4 *334:5 8
9 *334:3 *334:4 4.19042
10 *334:2 *334:3 8
11 *334:1 *334:2 8
12 *533:E *334:1 0.002
*END

*D_NET *335 0.000338742

*CONN
*I *574:Y O *C 14.365 28.13 *L 0 *D OAI21X1LVT
*I *651:C I *C 16.56 31.295 *L 0.000874 *D NAND3X2LVT

*CAP
1 *335:0 0.000157347
2 *335:1 0.000157347
3 *335:3 1.2024e-05
4 *335:4 1.2024e-05

*RES
1 *335:5 *651:C 8
2 *335:4 *335:5 8
3 *335:3 *335:4 0.702558
4 *335:1 *335:3 8
5 *335:0 *574:Y 8
6 *335:0 *335:1 10.3205
*END

*D_NET *336 0.000399724

*CONN
*I *668:Y O *C 10.1 23.18 *L 0 *D NOR3BX2LVT
*I *408:C I *C 8.96 27.875 *L 0.000874 *D NAND3X2LVT

*CAP
1 *336:0 0.00019165
2 *336:1 0.00019165
3 *336:3 8.21154e-06
4 *336:4 8.21154e-06

*RES
1 *336:5 *408:C 8
2 *336:4 *336:5 8
3 *336:3 *336:4 0.479795
4 *336:1 *336:3 8
5 *336:0 *668:Y 8
6 *336:0 *336:1 12.5705
*END

*D_NET *337 0.00111096

*CONN
*I *648:B I *C 14.365 32.71 *L 0.000878 *D NOR2X2LVT
*I *403:Y O *C 12.14 23.02 *L 0 *D NOR3X2LVT

*CAP
1 *337:0 0.00050709
2 *337:1 0.00050709
3 *337:3 4.83894e-05
4 *337:4 4.83894e-05

*RES
1 *337:5 *403:Y 8
2 *337:4 *337:5 8
3 *337:3 *337:4 2.82737
4 *337:1 *337:3 8
5 *337:0 *648:B 8
6 *337:0 *337:1 33.2605
*END

*D_NET *338 0.00514786

*CONN
*I *579:CK I *C 34.3 34.675 *L 0.000234 *D DFFRHQX1LVT
*I *573:CK I *C 36.5 36.385 *L 0.000234 *D DFFRHQX1LVT
*I *568:CK I *C 36.5 27.835 *L 0.000234 *D DFFRHQX1LVT
*I *553:CK I *C 36.5 32.965 *L 0.000234 *D DFFRHQX1LVT
*I *557:CK I *C 36.3 31.255 *L 0.000234 *D DFFRHQX1LVT
*I *544:CK I *C 36.1 20.995 *L 0.000234 *D DFFRHQX1LVT
*I *564:CK I *C 32.7 26.125 *L 0.000234 *D DFFRHQX1LVT
*I *550:CK I *C 36.1 29.545 *L 0.000234 *D DFFRHQX1LVT
*I *559:CK I *C 32.9 27.835 *L 0.000234 *D DFFRHQX1LVT
*I *560:CK I *C 32.9 22.705 *L 0.000234 *D DFFRHQX1LVT
*I *541:CK I *C 36.5 17.575 *L 0.000234 *D DFFRHQX1LVT
*I *561:CK I *C 36.3 26.125 *L 0.000234 *D DFFRHQX1LVT
*I *569:CK I *C 36.5 22.705 *L 0.000234 *D DFFRHQX1LVT
*I *547:CK I *C 32.1 20.995 *L 0.000234 *D DFFRHQX1LVT
*I *562:CK I *C 36.5 24.415 *L 0.000234 *D DFFRHQX1LVT
*I *563:CK I *C 32.9 24.415 *L 0.000234 *D DFFRHQX1LVT
*I *533:ECK O *C 31.96 26.45 *L 0 *D TLATNTSCAX2HVT

*CAP
1 *338:2 1.34851e-05
2 *338:3 1.34851e-05
3 *338:4 0.000105305
4 *338:5 0.000210609
5 *338:6 0.000105305
6 *338:7 1.34851e-05
7 *338:8 0.000236396
8 *338:10 1.34851e-05
9 *338:11 0.000236396
10 *338:13 9.79236e-05
11 *338:16 0.000293771
12 *338:18 0.000511379
13 *338:19 1.28817e-05
14 *338:20 0.000391695
15 *338:21 1.28817e-05
16 *338:22 1.28817e-05
17 *338:23 7.61628e-05
18 *338:24 9.79236e-05
19 *338:25 2.57634e-05
20 *338:27 9.79236e-05
21 *338:29 2.17608e-05
22 *338:30 0.000250484
23 *338:32 0.000119684
24 *338:33 0.000174086
25 *338:34 0.000237603
26 *338:35 0.000195847
27 *338:37 0.000174086
28 *338:38 0.000117005
29 *338:39 9.79236e-05
30 *338:42 3.51016e-05
31 *338:43 8.19037e-05
32 *338:45 1.34851e-05
33 *338:47 2.69701e-05
34 *338:48 1.17005e-05
35 *338:49 1.34851e-05
36 *338:50 1.17005e-05
37 *338:51 9.36042e-05
38 *338:53 0.000198909
39 *338:54 0.000245711
40 *338:55 1.34851e-05
41 *338:56 0.000140406
42 *338:58 1.34851e-05
43 *338:59 0.000121366
44 *338:61 0.000121366
45 *338:63 1.50875e-05
46 *338:64 1.87824e-05
47 *338:65 3.6949e-06

*RES
1 *338:65 *533:ECK 8
2 *338:64 *338:65 0.196435
3 *338:63 *338:64 0.802111
4 *338:61 *338:63 8
5 *338:60 *563:CK 8
6 *338:59 *338:61 6.28563
7 *338:58 *338:60 8
8 *338:56 *338:59 8
9 *338:55 *338:58 0.698404
10 *338:54 *562:CK 8
11 *338:54 *338:56 7.46454
12 *338:53 *338:55 8
13 *338:53 *338:54 5.59841
14 *338:51 *338:53 4.97636
15 *338:50 *547:CK 8
16 *338:49 *338:51 8
17 *338:48 *338:50 0.622045
18 *338:47 *338:49 0.698404
19 *338:47 *338:48 8
20 *338:45 *338:47 0.698404
21 *338:43 *569:CK 8
22 *338:42 *338:45 8
23 *338:39 *561:CK 8
24 *338:38 *338:43 4.35432
25 *338:38 *338:42 1.86614
26 *338:37 *541:CK 8
27 *338:35 *560:CK 8
28 *338:35 *338:39 5.60468
29 *338:34 *338:38 8
30 *338:33 *338:37 9.96387
31 *338:32 *559:CK 8
32 *338:32 *338:35 5.60468
33 *338:30 *338:34 12.4218
34 *338:30 *338:33 8
35 *338:29 *338:32 1.24548
36 *338:27 *550:CK 8
37 *338:25 *338:30 0.680821
38 *338:25 *338:29 8
39 *338:24 *564:CK 8
40 *338:24 *338:27 5.60468
41 *338:23 *544:CK 8
42 *338:22 *338:25 0.680821
43 *338:21 *338:24 8
44 *338:20 *338:23 4.35919
45 *338:20 *338:22 8
46 *338:19 *338:21 0.680821
47 *338:18 *338:20 18.0595
48 *338:18 *338:19 8
49 *338:16 *338:18 11.2094
50 *338:16 *557:CK 8
51 *338:13 *338:16 5.60468
52 *338:13 *553:CK 8
53 *338:12 *568:CK 8
54 *338:11 *338:13 8
55 *338:10 *338:12 8
56 *338:8 *338:11 12.3866
57 *338:7 *338:10 0.698404
58 *338:6 *573:CK 8
59 *338:6 *338:8 8
60 *338:5 *338:7 8
61 *338:5 *338:6 5.59841
62 *338:4 *338:5 5.59841
63 *338:3 *338:4 8
64 *338:2 *338:3 0.698404
65 *338:1 *338:2 8
66 *579:CK *338:1 8
*END

*D_NET *339 0.00251641

*CONN
*I *552:CK I *C 30.1 32.965 *L 0.000234 *D SDFFRHQX1LVT
*I *549:CK I *C 30.7 31.255 *L 0.000234 *D SDFFRHQX1LVT
*I *570:CK I *C 28.7 34.675 *L 0.000234 *D SDFFRHQX1LVT
*I *555:CK I *C 32.3 36.385 *L 0.000234 *D DFFRHQX1LVT
*I *581:CK I *C 27.5 36.385 *L 0.000234 *D SDFFRHQX1LVT
*I *546:CK I *C 29.7 29.545 *L 0.000234 *D SDFFRHQX1LVT
*I *535:ECK O *C 28.96 29.87 *L 0 *D TLATNTSCAX2HVT
*I *631:CK I *C 23.9 32.965 *L 0.000234 *D DFFRHQX1LVT
*I *543:CK I *C 25.94 28.075 *L 0.000234 *D SDFFRHQX2LVT

*CAP
1 *339:0 0.000204869
2 *339:1 0.000184206
3 *339:2 0.000105305
4 *339:4 8.46408e-05
5 *339:5 0.000144491
6 *339:6 2.69701e-05
7 *339:8 4.12833e-05
8 *339:9 0.000206416
9 *339:10 2.69701e-05
10 *339:11 4.12833e-05
11 *339:13 6.19249e-05
12 *339:14 8.52907e-05
13 *339:17 0.000184206
14 *339:18 0.000105305
15 *339:20 8.46408e-05
16 *339:21 9.95647e-05
17 *339:22 2.00141e-05
18 *339:23 4.98947e-05
19 *339:25 4.04552e-05
20 *339:27 0.000253519
21 *339:28 4.04552e-05
22 *339:30 0.000203624
23 *339:33 0.000110539
24 *339:35 0.000110539

*RES
1 *339:35 *543:CK 8
2 *339:33 *339:35 5.87669
3 *339:31 *631:CK 8
4 *339:30 *339:33 8
5 *339:29 *535:ECK 8
6 *339:28 *339:31 8
7 *339:27 *339:30 10.5459
8 *339:27 *339:29 8
9 *339:25 *339:28 2.09521
10 *339:23 *339:27 2.58409
11 *339:22 *546:CK 8
12 *339:21 *339:25 8
13 *339:20 *581:CK 8
14 *339:18 *339:23 8
15 *339:18 *339:22 1.06402
16 *339:17 *339:21 5.58519
17 *339:17 *339:20 5.55082
18 *339:15 *555:CK 8
19 *339:14 *339:18 4.53438
20 *339:13 *339:17 8
21 *339:12 *570:CK 8
22 *339:11 *339:15 8
23 *339:10 *339:14 8
24 *339:9 *339:13 3.93017
25 *339:9 *339:12 8
26 *339:8 *339:11 2.62011
27 *339:6 *339:10 1.39681
28 *339:5 *339:9 9.1704
29 *339:4 *339:8 8
30 *339:2 *549:CK 8
31 *339:2 *339:6 8
32 *339:1 *339:5 8
33 *339:1 *339:4 5.55082
34 *339:0 *552:CK 8
35 *339:0 *339:2 5.59841
36 *339:0 *339:1 5.58519
*END

*D_NET *340 0.00250308

*CONN
*I *607:CK I *C 9.1 17.575 *L 0.000234 *D DFFRHQX1LVT
*I *614:CK I *C 8.56 12.405 *L 0.000234 *D DFFRHQX4LVT
*I *611:CK I *C 8.56 10.775 *L 0.000234 *D DFFRHQX4LVT
*I *608:CK I *C 8.56 15.825 *L 0.000234 *D DFFRHQX4LVT
*I *612:CK I *C 9.16 8.985 *L 0.000234 *D DFFRHQX4LVT
*I *613:CK I *C 13.9 15.865 *L 0.000234 *D DFFRHQX1LVT
*I *537:ECK O *C 12.96 13.83 *L 0 *D TLATNTSCAX2HVT
*I *609:CK I *C 16.1 19.285 *L 0.000234 *D DFFRHQX1LVT
*I *610:CK I *C 10.1 20.995 *L 0.000234 *D DFFRHQX1LVT

*CAP
1 *340:2 6.56729e-05
2 *340:3 6.56729e-05
3 *340:4 8.46408e-05
4 *340:5 0.000159877
5 *340:6 1.09455e-05
6 *340:7 8.46408e-05
7 *340:8 1.09455e-05
8 *340:9 0.00021891
9 *340:10 9.40453e-06
10 *340:12 0.000229855
11 *340:15 1.09455e-05
12 *340:16 8.46408e-05
13 *340:17 0.000178686
14 *340:18 7.52362e-05
15 *340:19 9.40453e-06
16 *340:20 0.000178686
17 *340:23 3.28365e-05
18 *340:24 0.000109455
19 *340:25 7.66184e-05
20 *340:26 1.88091e-05
21 *340:27 8.19184e-05
22 *340:28 1.88091e-05
23 *340:29 0.00010642
24 *340:31 2.96985e-06
25 *340:32 2.15314e-05
26 *340:34 8.75639e-05
27 *340:35 9.85094e-05
28 *340:36 4.71258e-05
29 *340:37 1.09455e-05
30 *340:38 4.71258e-05
31 *340:39 0.000132138
32 *340:41 0.000132138

*RES
1 *340:41 *610:CK 8
2 *340:39 *340:41 8.66681
3 *340:38 *609:CK 8
4 *340:37 *340:39 8
5 *340:36 *340:38 3.09079
6 *340:35 *340:37 0.663718
7 *340:35 *340:36 8
8 *340:34 *340:35 5.30974
9 *340:32 *340:34 8
10 *340:31 *537:ECK 8
11 *340:29 *340:32 1.41205
12 *340:29 *340:31 0.194766
13 *340:28 *613:CK 8
14 *340:27 *340:29 5.37229
15 *340:26 *340:28 1.23352
16 *340:25 *340:27 8
17 *340:24 *340:26 8
18 *340:24 *340:25 4.64602
19 *340:23 *340:24 1.99115
20 *340:20 *340:23 8
21 *340:19 *612:CK 8
22 *340:18 *608:CK 8
23 *340:17 *340:20 11.7184
24 *340:16 *340:19 0.616758
25 *340:16 *340:18 4.93406
26 *340:15 *340:17 8
27 *340:12 *340:16 8
28 *340:12 *340:15 0.663718
29 *340:11 *611:CK 8
30 *340:10 *614:CK 8
31 *340:9 *340:12 13.2744
32 *340:8 *340:11 8
33 *340:7 *340:10 0.616758
34 *340:7 *340:9 8
35 *340:6 *340:8 0.663718
36 *340:5 *340:7 4.93406
37 *340:5 *340:6 8
38 *340:4 *340:5 5.55082
39 *340:3 *340:4 8
40 *340:2 *340:3 3.98231
41 *340:1 *340:2 8
42 *607:CK *340:1 8
*END

*D_NET *341 0.00809596

*CONN
*I *624:CK I *C 33.3 14.155 *L 0.000234 *D DFFRHQX1LVT
*I *623:CK I *C 29.7 14.155 *L 0.000234 *D DFFRHQX1LVT
*I *618:CK I *C 31.9 15.865 *L 0.000234 *D DFFRHQX1LVT
*I *620:CK I *C 19.3 17.575 *L 0.000234 *D DFFRHQX1LVT
*I *617:CK I *C 29.5 19.285 *L 0.000234 *D DFFRHQX1LVT
*I *619:CK I *C 13.56 17.615 *L 0.000234 *D DFFRHQX4LVT
*I *622:CK I *C 18.16 14.195 *L 0.000234 *D DFFRHQX4LVT
*I *621:CK I *C 22.7 26.125 *L 0.000234 *D DFFRHQX1LVT
*I *539:ECK O *C 20.76 23.03 *L 0 *D TLATNTSCAX2HVT
*I *646:CK I *C 18.16 36.345 *L 0.000234 *D DFFRHQX4LVT
*I *636:CK I *C 13.9 36.385 *L 0.000234 *D DFFRX1LVT
*I *665:CK I *C 24.1 36.385 *L 0.000234 *D DFFRX1LVT
*I *635:CK I *C 9.365 36.345 *L 0.000234 *D DFFRXLLVT
*I *633:CK I *C 10.9 31.255 *L 0.000234 *D DFFRHQX1LVT

*CAP
1 *341:2 4.41336e-05
2 *341:3 4.41336e-05
3 *341:4 8.45595e-05
4 *341:5 0.000169119
5 *341:6 8.45595e-05
6 *341:7 5.5167e-05
7 *341:8 2.20668e-05
8 *341:9 5.5167e-05
9 *341:10 6.62004e-05
10 *341:12 0.000195627
11 *341:13 0.000408236
12 *341:15 0.000195627
13 *341:17 0.000364102
14 *341:18 6.74253e-05
15 *341:20 5.6373e-05
16 *341:21 6.74253e-05
17 *341:22 9.3955e-06
18 *341:24 4.69775e-05
19 *341:26 0.000253504
20 *341:27 2.20668e-05
21 *341:29 2.20668e-05
22 *341:30 0.000242383
23 *341:31 2.20668e-05
24 *341:32 0.000478744
25 *341:33 9.40453e-06
26 *341:34 1.09455e-05
27 *341:35 3.7582e-05
28 *341:36 0.000548948
29 *341:37 9.40453e-06
30 *341:38 0.000245364
31 *341:39 3.7582e-05
32 *341:40 2.69701e-05
33 *341:41 7.02032e-05
34 *341:43 0.000245364
35 *341:45 2.69701e-05
36 *341:46 6.74253e-05
37 *341:48 3.38699e-06
38 *341:49 6.74253e-05
39 *341:50 7.0819e-06
40 *341:51 0.000269112
41 *341:52 3.6949e-06
42 *341:53 0.000588691
43 *341:55 0.000328983
44 *341:57 9.40453e-06
45 *341:58 0.000238316
46 *341:59 0.000175454
47 *341:60 0.000488827
48 *341:61 0.000175454
49 *341:62 9.40453e-06
50 *341:63 0.000315459
51 *341:64 1.88091e-05
52 *341:65 9.40453e-06
53 *341:66 7.42463e-06
54 *341:67 6.49474e-05
55 *341:68 1.88091e-05
56 *341:70 1.0642e-05
57 *341:71 0.000434362
58 *341:73 3.21734e-06
59 *341:74 0.000434362

*RES
1 *341:74 *633:CK 8
2 *341:73 *635:CK 8
3 *341:71 *341:74 28.4899
4 *341:70 *341:73 0.210996
5 *341:68 *665:CK 8
6 *341:67 *341:71 8
7 *341:66 *341:70 0.486914
8 *341:65 *636:CK 8
9 *341:64 *341:68 1.23352
10 *341:63 *341:67 4.57494
11 *341:63 *341:66 8
12 *341:62 *341:65 0.616758
13 *341:61 *341:64 8
14 *341:60 *341:63 17.6462
15 *341:60 *341:62 8
16 *341:59 *341:61 11.1355
17 *341:58 *341:60 15.7075
18 *341:57 *341:59 8
19 *341:55 *341:58 8
20 *341:55 *341:57 0.616758
21 *341:53 *646:CK 8
22 *341:53 *341:55 17.3988
23 *341:52 *539:ECK 8
24 *341:51 *341:53 14.307
25 *341:50 *341:52 0.196435
26 *341:49 *341:51 8
27 *341:48 *341:50 0.180066
28 *341:46 *341:49 3.49202
29 *341:45 *341:48 8
30 *341:43 *621:CK 8
31 *341:41 *341:46 8
32 *341:40 *341:45 1.39681
33 *341:39 *622:CK 8
34 *341:38 *341:43 16.0931
35 *341:37 *619:CK 8
36 *341:36 *341:41 3.73227
37 *341:36 *341:40 8
38 *341:35 *341:39 2.47812
39 *341:34 *341:38 8
40 *341:33 *341:37 0.616758
41 *341:32 *341:36 26.1121
42 *341:31 *341:35 8
43 *341:30 *341:34 0.663718
44 *341:30 *341:33 8
45 *341:29 *341:32 8
46 *341:27 *341:31 1.33137
47 *341:26 *341:30 13.9735
48 *341:26 *341:29 1.33137
49 *341:25 *617:CK 8
50 *341:24 *341:27 8
51 *341:22 *341:26 8
52 *341:21 *341:25 8
53 *341:20 *341:24 3.09764
54 *341:20 *620:CK 8
55 *341:20 *341:22 0.619529
56 *341:18 *341:21 3.49202
57 *341:17 *341:20 8
58 *341:16 *618:CK 8
59 *341:15 *341:18 8
60 *341:13 *341:17 21.9676
61 *341:13 *341:16 8
62 *341:12 *341:15 11.1805
63 *341:11 *623:CK 8
64 *341:10 *341:13 2.66274
65 *341:10 *341:12 8
66 *341:9 *341:11 8
67 *341:8 *341:10 1.33137
68 *341:7 *341:9 3.32843
69 *341:6 *341:8 8
70 *341:5 *341:7 8
71 *341:5 *341:6 5.57576
72 *341:4 *341:5 5.57576
73 *341:3 *341:4 8
74 *341:2 *341:3 2.66274
75 *341:1 *341:2 8
76 *624:CK *341:1 8
*END

*D_NET *342 0.000856714

*CONN
*I *532:Y O *C 29.9 20.425 *L 0 *D TIELO
*I *533:SE I *C 29.1 26.505 *L 0.000177 *D TLATNTSCAX2HVT

*CAP
1 *342:0 0.000374417
2 *342:1 0.000374417
3 *342:3 5.39402e-05
4 *342:4 5.39402e-05

*RES
1 *342:5 *533:SE 8
2 *342:4 *342:5 8
3 *342:3 *342:4 2.79361
4 *342:1 *342:3 8
5 *342:0 *532:Y 8
6 *342:0 *342:1 19.9055
*END

*D_NET *343 0.000821797

*CONN
*I *535:SE I *C 26.1 29.925 *L 0.000177 *D TLATNTSCAX2HVT
*I *534:Y O *C 20.7 30.685 *L 0 *D TIELO

*CAP
1 *343:0 4.68021e-05
2 *343:1 4.68021e-05
3 *343:3 0.000364097
4 *343:4 0.000364097

*RES
1 *343:5 *534:Y 8
2 *343:4 *343:5 8
3 *343:3 *343:4 18.8569
4 *343:1 *343:3 8
5 *343:0 *535:SE 8
6 *343:0 *343:1 2.48818
*END

*D_NET *344 0.000172046

*CONN
*I *537:SE I *C 10.1 13.775 *L 0.000177 *D TLATNTSCAX2HVT
*I *536:Y O *C 8.7 13.585 *L 0 *D TIELO

*CAP
1 *344:0 9.40453e-06
2 *344:1 9.40453e-06
3 *344:3 7.66184e-05
4 *344:4 7.66184e-05

*RES
1 *344:5 *536:Y 8
2 *344:4 *344:5 8
3 *344:3 *344:4 4.64602
4 *344:1 *344:3 8
5 *344:0 *537:SE 8
6 *344:0 *344:1 0.616758
*END

*D_NET *345 9.36042e-05

*CONN
*I *539:SE I *C 17.9 23.085 *L 0.000177 *D TLATNTSCAX2HVT
*I *538:Y O *C 17.9 23.845 *L 0 *D TIELO

*CAP
1 *345:0 4.68021e-05
2 *345:1 4.68021e-05

*RES
1 *345:1 *538:Y 8
2 *345:0 *539:SE 8
3 *345:0 *345:1 2.48818
*END
